\ Model Model_Mine
\ LP format - for model browsing. Use MPS format to capture full model detail.
\ Signature: 0x2db8250cfdbf61bc
Minimize
  0 z[1,1,1] + 0 z[1,2,2] + 0 z[1,3,3] + 0 z[1,4,4] + 0 z[1,5,5]
   + 0 z[1,6,6] + 0 z[1,7,7] + 0 z[1,8,8] + 0 z[1,9,9] + 0 z[1,10,10]
   + Cmax
Subject To
 R14[1,1]: x[1,0,1] + x[1,2,1] + x[1,3,1] + x[1,4,1] + x[1,5,1] + x[1,6,1]
   + x[1,7,1] + x[1,8,1] + x[1,9,1] + x[1,10,1] - y[1,1] = 0
 R14[1,2]: x[1,0,2] + x[1,1,2] + x[1,3,2] + x[1,4,2] + x[1,5,2] + x[1,6,2]
   + x[1,7,2] + x[1,8,2] + x[1,9,2] + x[1,10,2] - y[1,2] = 0
 R14[1,3]: x[1,0,3] + x[1,1,3] + x[1,2,3] + x[1,4,3] + x[1,5,3] + x[1,6,3]
   + x[1,7,3] + x[1,8,3] + x[1,9,3] + x[1,10,3] - y[1,3] = 0
 R14[1,4]: x[1,0,4] + x[1,1,4] + x[1,2,4] + x[1,3,4] + x[1,5,4] + x[1,6,4]
   + x[1,7,4] + x[1,8,4] + x[1,9,4] + x[1,10,4] - y[1,4] = 0
 R14[1,5]: x[1,0,5] + x[1,1,5] + x[1,2,5] + x[1,3,5] + x[1,4,5] + x[1,6,5]
   + x[1,7,5] + x[1,8,5] + x[1,9,5] + x[1,10,5] - y[1,5] = 0
 R14[1,6]: x[1,0,6] + x[1,1,6] + x[1,2,6] + x[1,3,6] + x[1,4,6] + x[1,5,6]
   + x[1,7,6] + x[1,8,6] + x[1,9,6] + x[1,10,6] - y[1,6] = 0
 R14[1,7]: x[1,0,7] + x[1,1,7] + x[1,2,7] + x[1,3,7] + x[1,4,7] + x[1,5,7]
   + x[1,6,7] + x[1,8,7] + x[1,9,7] + x[1,10,7] - y[1,7] = 0
 R14[1,8]: x[1,0,8] + x[1,1,8] + x[1,2,8] + x[1,3,8] + x[1,4,8] + x[1,5,8]
   + x[1,6,8] + x[1,7,8] + x[1,9,8] + x[1,10,8] - y[1,8] = 0
 R14[1,9]: x[1,0,9] + x[1,1,9] + x[1,2,9] + x[1,3,9] + x[1,4,9] + x[1,5,9]
   + x[1,6,9] + x[1,7,9] + x[1,8,9] + x[1,10,9] - y[1,9] = 0
 R14[1,10]: x[1,0,10] + x[1,1,10] + x[1,2,10] + x[1,3,10] + x[1,4,10]
   + x[1,5,10] + x[1,6,10] + x[1,7,10] + x[1,8,10] + x[1,9,10] - y[1,10]
   = 0
 R14[2,1]: x[2,0,1] + x[2,2,1] + x[2,3,1] + x[2,4,1] + x[2,5,1] + x[2,6,1]
   + x[2,7,1] + x[2,8,1] + x[2,9,1] + x[2,10,1] - y[2,1] = 0
 R14[2,2]: x[2,0,2] + x[2,1,2] + x[2,3,2] + x[2,4,2] + x[2,5,2] + x[2,6,2]
   + x[2,7,2] + x[2,8,2] + x[2,9,2] + x[2,10,2] - y[2,2] = 0
 R14[2,3]: x[2,0,3] + x[2,1,3] + x[2,2,3] + x[2,4,3] + x[2,5,3] + x[2,6,3]
   + x[2,7,3] + x[2,8,3] + x[2,9,3] + x[2,10,3] - y[2,3] = 0
 R14[2,4]: x[2,0,4] + x[2,1,4] + x[2,2,4] + x[2,3,4] + x[2,5,4] + x[2,6,4]
   + x[2,7,4] + x[2,8,4] + x[2,9,4] + x[2,10,4] - y[2,4] = 0
 R14[2,5]: x[2,0,5] + x[2,1,5] + x[2,2,5] + x[2,3,5] + x[2,4,5] + x[2,6,5]
   + x[2,7,5] + x[2,8,5] + x[2,9,5] + x[2,10,5] - y[2,5] = 0
 R14[2,6]: x[2,0,6] + x[2,1,6] + x[2,2,6] + x[2,3,6] + x[2,4,6] + x[2,5,6]
   + x[2,7,6] + x[2,8,6] + x[2,9,6] + x[2,10,6] - y[2,6] = 0
 R14[2,7]: x[2,0,7] + x[2,1,7] + x[2,2,7] + x[2,3,7] + x[2,4,7] + x[2,5,7]
   + x[2,6,7] + x[2,8,7] + x[2,9,7] + x[2,10,7] - y[2,7] = 0
 R14[2,8]: x[2,0,8] + x[2,1,8] + x[2,2,8] + x[2,3,8] + x[2,4,8] + x[2,5,8]
   + x[2,6,8] + x[2,7,8] + x[2,9,8] + x[2,10,8] - y[2,8] = 0
 R14[2,9]: x[2,0,9] + x[2,1,9] + x[2,2,9] + x[2,3,9] + x[2,4,9] + x[2,5,9]
   + x[2,6,9] + x[2,7,9] + x[2,8,9] + x[2,10,9] - y[2,9] = 0
 R14[2,10]: x[2,0,10] + x[2,1,10] + x[2,2,10] + x[2,3,10] + x[2,4,10]
   + x[2,5,10] + x[2,6,10] + x[2,7,10] + x[2,8,10] + x[2,9,10] - y[2,10]
   = 0
 R15[1,1]: x[1,1,2] + x[1,1,3] + x[1,1,4] + x[1,1,5] + x[1,1,6] + x[1,1,7]
   + x[1,1,8] + x[1,1,9] + x[1,1,10] - y[1,1] <= 0
 R15[1,2]: x[1,2,1] + x[1,2,3] + x[1,2,4] + x[1,2,5] + x[1,2,6] + x[1,2,7]
   + x[1,2,8] + x[1,2,9] + x[1,2,10] - y[1,2] <= 0
 R15[1,3]: x[1,3,1] + x[1,3,2] + x[1,3,4] + x[1,3,5] + x[1,3,6] + x[1,3,7]
   + x[1,3,8] + x[1,3,9] + x[1,3,10] - y[1,3] <= 0
 R15[1,4]: x[1,4,1] + x[1,4,2] + x[1,4,3] + x[1,4,5] + x[1,4,6] + x[1,4,7]
   + x[1,4,8] + x[1,4,9] + x[1,4,10] - y[1,4] <= 0
 R15[1,5]: x[1,5,1] + x[1,5,2] + x[1,5,3] + x[1,5,4] + x[1,5,6] + x[1,5,7]
   + x[1,5,8] + x[1,5,9] + x[1,5,10] - y[1,5] <= 0
 R15[1,6]: x[1,6,1] + x[1,6,2] + x[1,6,3] + x[1,6,4] + x[1,6,5] + x[1,6,7]
   + x[1,6,8] + x[1,6,9] + x[1,6,10] - y[1,6] <= 0
 R15[1,7]: x[1,7,1] + x[1,7,2] + x[1,7,3] + x[1,7,4] + x[1,7,5] + x[1,7,6]
   + x[1,7,8] + x[1,7,9] + x[1,7,10] - y[1,7] <= 0
 R15[1,8]: x[1,8,1] + x[1,8,2] + x[1,8,3] + x[1,8,4] + x[1,8,5] + x[1,8,6]
   + x[1,8,7] + x[1,8,9] + x[1,8,10] - y[1,8] <= 0
 R15[1,9]: x[1,9,1] + x[1,9,2] + x[1,9,3] + x[1,9,4] + x[1,9,5] + x[1,9,6]
   + x[1,9,7] + x[1,9,8] + x[1,9,10] - y[1,9] <= 0
 R15[1,10]: x[1,10,1] + x[1,10,2] + x[1,10,3] + x[1,10,4] + x[1,10,5]
   + x[1,10,6] + x[1,10,7] + x[1,10,8] + x[1,10,9] - y[1,10] <= 0
 R15[2,1]: x[2,1,2] + x[2,1,3] + x[2,1,4] + x[2,1,5] + x[2,1,6] + x[2,1,7]
   + x[2,1,8] + x[2,1,9] + x[2,1,10] - y[2,1] <= 0
 R15[2,2]: x[2,2,1] + x[2,2,3] + x[2,2,4] + x[2,2,5] + x[2,2,6] + x[2,2,7]
   + x[2,2,8] + x[2,2,9] + x[2,2,10] - y[2,2] <= 0
 R15[2,3]: x[2,3,1] + x[2,3,2] + x[2,3,4] + x[2,3,5] + x[2,3,6] + x[2,3,7]
   + x[2,3,8] + x[2,3,9] + x[2,3,10] - y[2,3] <= 0
 R15[2,4]: x[2,4,1] + x[2,4,2] + x[2,4,3] + x[2,4,5] + x[2,4,6] + x[2,4,7]
   + x[2,4,8] + x[2,4,9] + x[2,4,10] - y[2,4] <= 0
 R15[2,5]: x[2,5,1] + x[2,5,2] + x[2,5,3] + x[2,5,4] + x[2,5,6] + x[2,5,7]
   + x[2,5,8] + x[2,5,9] + x[2,5,10] - y[2,5] <= 0
 R15[2,6]: x[2,6,1] + x[2,6,2] + x[2,6,3] + x[2,6,4] + x[2,6,5] + x[2,6,7]
   + x[2,6,8] + x[2,6,9] + x[2,6,10] - y[2,6] <= 0
 R15[2,7]: x[2,7,1] + x[2,7,2] + x[2,7,3] + x[2,7,4] + x[2,7,5] + x[2,7,6]
   + x[2,7,8] + x[2,7,9] + x[2,7,10] - y[2,7] <= 0
 R15[2,8]: x[2,8,1] + x[2,8,2] + x[2,8,3] + x[2,8,4] + x[2,8,5] + x[2,8,6]
   + x[2,8,7] + x[2,8,9] + x[2,8,10] - y[2,8] <= 0
 R15[2,9]: x[2,9,1] + x[2,9,2] + x[2,9,3] + x[2,9,4] + x[2,9,5] + x[2,9,6]
   + x[2,9,7] + x[2,9,8] + x[2,9,10] - y[2,9] <= 0
 R15[2,10]: x[2,10,1] + x[2,10,2] + x[2,10,3] + x[2,10,4] + x[2,10,5]
   + x[2,10,6] + x[2,10,7] + x[2,10,8] + x[2,10,9] - y[2,10] <= 0
 R16[1]: y[1,1] + y[2,1] = 1
 R16[2]: y[1,2] + y[2,2] = 1
 R16[3]: y[1,3] + y[2,3] = 1
 R16[4]: y[1,4] + y[2,4] = 1
 R16[5]: y[1,5] + y[2,5] = 1
 R16[6]: y[1,6] + y[2,6] = 1
 R16[7]: y[1,7] + y[2,7] = 1
 R16[8]: y[1,8] + y[2,8] = 1
 R16[9]: y[1,9] + y[2,9] = 1
 R16[10]: y[1,10] + y[2,10] = 1
 R20[1,1]: y[1,1] <= 1
 R20[1,2]: y[1,2] <= 1
 R20[1,3]: y[1,3] <= 1
 R20[1,4]: y[1,4] <= 1
 R20[1,5]: y[1,5] <= 1
 R20[1,6]: y[1,6] <= 1
 R20[1,7]: y[1,7] <= 1
 R20[1,8]: y[1,8] <= 1
 R20[1,9]: y[1,9] <= 1
 R20[1,10]: y[1,10] <= 1
 R20[2,1]: y[2,1] <= 1
 R20[2,2]: y[2,2] <= 1
 R20[2,3]: y[2,3] <= 1
 R20[2,4]: y[2,4] <= 1
 R20[2,5]: y[2,5] <= 1
 R20[2,6]: y[2,6] <= 1
 R20[2,7]: y[2,7] <= 1
 R20[2,8]: y[2,8] <= 1
 R20[2,9]: y[2,9] <= 1
 R20[2,10]: y[2,10] <= 1
 R5[1]: x[1,0,1] + x[1,0,2] + x[1,0,3] + x[1,0,4] + x[1,0,5] + x[1,0,6]
   + x[1,0,7] + x[1,0,8] + x[1,0,9] + x[1,0,10] <= 1
 R5[2]: x[2,0,1] + x[2,0,2] + x[2,0,3] + x[2,0,4] + x[2,0,5] + x[2,0,6]
   + x[2,0,7] + x[2,0,8] + x[2,0,9] + x[2,0,10] <= 1
 R6new[1,1]: z[1,0,1] + z[1,2,1] + z[1,3,1] + z[1,4,1] + z[1,5,1]
   + z[1,6,1] + z[1,7,1] + z[1,8,1] + z[1,9,1] + z[1,10,1] - w[1,1] = 0
 R6new[1,2]: z[1,0,2] + z[1,1,2] + z[1,3,2] + z[1,4,2] + z[1,5,2]
   + z[1,6,2] + z[1,7,2] + z[1,8,2] + z[1,9,2] + z[1,10,2] - w[1,2] = 0
 R6new[1,3]: z[1,0,3] + z[1,1,3] + z[1,2,3] + z[1,4,3] + z[1,5,3]
   + z[1,6,3] + z[1,7,3] + z[1,8,3] + z[1,9,3] + z[1,10,3] - w[1,3] = 0
 R6new[1,4]: z[1,0,4] + z[1,1,4] + z[1,2,4] + z[1,3,4] + z[1,5,4]
   + z[1,6,4] + z[1,7,4] + z[1,8,4] + z[1,9,4] + z[1,10,4] - w[1,4] = 0
 R6new[1,5]: z[1,0,5] + z[1,1,5] + z[1,2,5] + z[1,3,5] + z[1,4,5]
   + z[1,6,5] + z[1,7,5] + z[1,8,5] + z[1,9,5] + z[1,10,5] - w[1,5] = 0
 R6new[1,6]: z[1,0,6] + z[1,1,6] + z[1,2,6] + z[1,3,6] + z[1,4,6]
   + z[1,5,6] + z[1,7,6] + z[1,8,6] + z[1,9,6] + z[1,10,6] - w[1,6] = 0
 R6new[1,7]: z[1,0,7] + z[1,1,7] + z[1,2,7] + z[1,3,7] + z[1,4,7]
   + z[1,5,7] + z[1,6,7] + z[1,8,7] + z[1,9,7] + z[1,10,7] - w[1,7] = 0
 R6new[1,8]: z[1,0,8] + z[1,1,8] + z[1,2,8] + z[1,3,8] + z[1,4,8]
   + z[1,5,8] + z[1,6,8] + z[1,7,8] + z[1,9,8] + z[1,10,8] - w[1,8] = 0
 R6new[1,9]: z[1,0,9] + z[1,1,9] + z[1,2,9] + z[1,3,9] + z[1,4,9]
   + z[1,5,9] + z[1,6,9] + z[1,7,9] + z[1,8,9] + z[1,10,9] - w[1,9] = 0
 R6new[1,10]: z[1,0,10] + z[1,1,10] + z[1,2,10] + z[1,3,10] + z[1,4,10]
   + z[1,5,10] + z[1,6,10] + z[1,7,10] + z[1,8,10] + z[1,9,10] - w[1,10]
   = 0
 R7new[1,1]: z[1,1,2] + z[1,1,3] + z[1,1,4] + z[1,1,5] + z[1,1,6]
   + z[1,1,7] + z[1,1,8] + z[1,1,9] + z[1,1,10] - w[1,1] <= 0
 R7new[1,2]: z[1,2,1] + z[1,2,3] + z[1,2,4] + z[1,2,5] + z[1,2,6]
   + z[1,2,7] + z[1,2,8] + z[1,2,9] + z[1,2,10] - w[1,2] <= 0
 R7new[1,3]: z[1,3,1] + z[1,3,2] + z[1,3,4] + z[1,3,5] + z[1,3,6]
   + z[1,3,7] + z[1,3,8] + z[1,3,9] + z[1,3,10] - w[1,3] <= 0
 R7new[1,4]: z[1,4,1] + z[1,4,2] + z[1,4,3] + z[1,4,5] + z[1,4,6]
   + z[1,4,7] + z[1,4,8] + z[1,4,9] + z[1,4,10] - w[1,4] <= 0
 R7new[1,5]: z[1,5,1] + z[1,5,2] + z[1,5,3] + z[1,5,4] + z[1,5,6]
   + z[1,5,7] + z[1,5,8] + z[1,5,9] + z[1,5,10] - w[1,5] <= 0
 R7new[1,6]: z[1,6,1] + z[1,6,2] + z[1,6,3] + z[1,6,4] + z[1,6,5]
   + z[1,6,7] + z[1,6,8] + z[1,6,9] + z[1,6,10] - w[1,6] <= 0
 R7new[1,7]: z[1,7,1] + z[1,7,2] + z[1,7,3] + z[1,7,4] + z[1,7,5]
   + z[1,7,6] + z[1,7,8] + z[1,7,9] + z[1,7,10] - w[1,7] <= 0
 R7new[1,8]: z[1,8,1] + z[1,8,2] + z[1,8,3] + z[1,8,4] + z[1,8,5]
   + z[1,8,6] + z[1,8,7] + z[1,8,9] + z[1,8,10] - w[1,8] <= 0
 R7new[1,9]: z[1,9,1] + z[1,9,2] + z[1,9,3] + z[1,9,4] + z[1,9,5]
   + z[1,9,6] + z[1,9,7] + z[1,9,8] + z[1,9,10] - w[1,9] <= 0
 R7new[1,10]: z[1,10,1] + z[1,10,2] + z[1,10,3] + z[1,10,4] + z[1,10,5]
   + z[1,10,6] + z[1,10,7] + z[1,10,8] + z[1,10,9] - w[1,10] <= 0
 R21[1]: w[1,1] = 1
 R21[2]: w[1,2] = 1
 R21[3]: w[1,3] = 1
 R21[4]: w[1,4] = 1
 R21[5]: w[1,5] = 1
 R21[6]: w[1,6] = 1
 R21[7]: w[1,7] = 1
 R21[8]: w[1,8] = 1
 R21[9]: w[1,9] = 1
 R21[10]: w[1,10] = 1
 R22[1]: z[1,0,1] + z[1,0,2] + z[1,0,3] + z[1,0,4] + z[1,0,5] + z[1,0,6]
   + z[1,0,7] + z[1,0,8] + z[1,0,9] + z[1,0,10] <= 1
 R8[1,1]: - 5938 x[1,0,1] + B[1] >= -5923
 R8[1,2]: - 5938 x[1,0,2] + B[2] >= -5905
 R8[1,3]: - 5938 x[1,0,3] + B[3] >= -5899
 R8[1,4]: - 5938 x[1,0,4] + B[4] >= -5936
 R8[1,5]: - 5938 x[1,0,5] + B[5] >= -5902
 R8[1,6]: - 5938 x[1,0,6] + B[6] >= -5925
 R8[1,7]: - 5938 x[1,0,7] + B[7] >= -5892
 R8[1,8]: - 5938 x[1,0,8] + B[8] >= -5896
 R8[1,9]: - 5938 x[1,0,9] + B[9] >= -5893
 R8[1,10]: - 5938 x[1,0,10] + B[10] >= -5903
 R8[2,1]: - 5938 x[2,0,1] + B[1] >= -5896
 R8[2,2]: - 5938 x[2,0,2] + B[2] >= -5906
 R8[2,3]: - 5938 x[2,0,3] + B[3] >= -5912
 R8[2,4]: - 5938 x[2,0,4] + B[4] >= -5896
 R8[2,5]: - 5938 x[2,0,5] + B[5] >= -5908
 R8[2,6]: - 5938 x[2,0,6] + B[6] >= -5928
 R8[2,7]: - 5938 x[2,0,7] + B[7] >= -5921
 R8[2,8]: - 5938 x[2,0,8] + B[8] >= -5929
 R8[2,9]: - 5938 x[2,0,9] + B[9] >= -5922
 R8[2,10]: - 5938 x[2,0,10] + B[10] >= -5890
 R9[1,1,2]: - 5938 x[1,1,2] - B[1] + B[2] >= -5829
 R9[1,1,3]: - 5938 x[1,1,3] - B[1] + B[3] >= -5841
 R9[1,1,4]: - 5938 x[1,1,4] - B[1] + B[4] >= -5827
 R9[1,1,5]: - 5938 x[1,1,5] - B[1] + B[5] >= -5818
 R9[1,1,6]: - 5938 x[1,1,6] - B[1] + B[6] >= -5838
 R9[1,1,7]: - 5938 x[1,1,7] - B[1] + B[7] >= -5855
 R9[1,1,8]: - 5938 x[1,1,8] - B[1] + B[8] >= -5807
 R9[1,1,9]: - 5938 x[1,1,9] - B[1] + B[9] >= -5845
 R9[1,1,10]: - 5938 x[1,1,10] - B[1] + B[10] >= -5811
 R9[1,2,1]: - 5938 x[1,2,1] + B[1] - B[2] >= -5895
 R9[1,2,3]: - 5938 x[1,2,3] - B[2] + B[3] >= -5901
 R9[1,2,4]: - 5938 x[1,2,4] - B[2] + B[4] >= -5905
 R9[1,2,5]: - 5938 x[1,2,5] - B[2] + B[5] >= -5913
 R9[1,2,6]: - 5938 x[1,2,6] - B[2] + B[6] >= -5909
 R9[1,2,7]: - 5938 x[1,2,7] - B[2] + B[7] >= -5874
 R9[1,2,8]: - 5938 x[1,2,8] - B[2] + B[8] >= -5901
 R9[1,2,9]: - 5938 x[1,2,9] - B[2] + B[9] >= -5916
 R9[1,2,10]: - 5938 x[1,2,10] - B[2] + B[10] >= -5917
 R9[1,3,1]: - 5938 x[1,3,1] + B[1] - B[3] >= -5909
 R9[1,3,2]: - 5938 x[1,3,2] + B[2] - B[3] >= -5927
 R9[1,3,4]: - 5938 x[1,3,4] - B[3] + B[4] >= -5911
 R9[1,3,5]: - 5938 x[1,3,5] - B[3] + B[5] >= -5911
 R9[1,3,6]: - 5938 x[1,3,6] - B[3] + B[6] >= -5895
 R9[1,3,7]: - 5938 x[1,3,7] - B[3] + B[7] >= -5917
 R9[1,3,8]: - 5938 x[1,3,8] - B[3] + B[8] >= -5931
 R9[1,3,9]: - 5938 x[1,3,9] - B[3] + B[9] >= -5887
 R9[1,3,10]: - 5938 x[1,3,10] - B[3] + B[10] >= -5904
 R9[1,4,1]: - 5938 x[1,4,1] + B[1] - B[4] >= -5808
 R9[1,4,2]: - 5938 x[1,4,2] + B[2] - B[4] >= -5835
 R9[1,4,3]: - 5938 x[1,4,3] + B[3] - B[4] >= -5818
 R9[1,4,5]: - 5938 x[1,4,5] - B[4] + B[5] >= -5837
 R9[1,4,6]: - 5938 x[1,4,6] - B[4] + B[6] >= -5807
 R9[1,4,7]: - 5938 x[1,4,7] - B[4] + B[7] >= -5824
 R9[1,4,8]: - 5938 x[1,4,8] - B[4] + B[8] >= -5802
 R9[1,4,9]: - 5938 x[1,4,9] - B[4] + B[9] >= -5803
 R9[1,4,10]: - 5938 x[1,4,10] - B[4] + B[10] >= -5819
 R9[1,5,1]: - 5938 x[1,5,1] + B[1] - B[5] >= -5865
 R9[1,5,2]: - 5938 x[1,5,2] + B[2] - B[5] >= -5889
 R9[1,5,3]: - 5938 x[1,5,3] + B[3] - B[5] >= -5856
 R9[1,5,4]: - 5938 x[1,5,4] + B[4] - B[5] >= -5897
 R9[1,5,6]: - 5938 x[1,5,6] - B[5] + B[6] >= -5899
 R9[1,5,7]: - 5938 x[1,5,7] - B[5] + B[7] >= -5859
 R9[1,5,8]: - 5938 x[1,5,8] - B[5] + B[8] >= -5887
 R9[1,5,9]: - 5938 x[1,5,9] - B[5] + B[9] >= -5883
 R9[1,5,10]: - 5938 x[1,5,10] - B[5] + B[10] >= -5896
 R9[1,6,1]: - 5938 x[1,6,1] + B[1] - B[6] >= -5891
 R9[1,6,2]: - 5938 x[1,6,2] + B[2] - B[6] >= -5899
 R9[1,6,3]: - 5938 x[1,6,3] + B[3] - B[6] >= -5881
 R9[1,6,4]: - 5938 x[1,6,4] + B[4] - B[6] >= -5888
 R9[1,6,5]: - 5938 x[1,6,5] + B[5] - B[6] >= -5876
 R9[1,6,7]: - 5938 x[1,6,7] - B[6] + B[7] >= -5865
 R9[1,6,8]: - 5938 x[1,6,8] - B[6] + B[8] >= -5882
 R9[1,6,9]: - 5938 x[1,6,9] - B[6] + B[9] >= -5895
 R9[1,6,10]: - 5938 x[1,6,10] - B[6] + B[10] >= -5882
 R9[1,7,1]: - 5938 x[1,7,1] + B[1] - B[7] >= -5886
 R9[1,7,2]: - 5938 x[1,7,2] + B[2] - B[7] >= -5895
 R9[1,7,3]: - 5938 x[1,7,3] + B[3] - B[7] >= -5866
 R9[1,7,4]: - 5938 x[1,7,4] + B[4] - B[7] >= -5891
 R9[1,7,5]: - 5938 x[1,7,5] + B[5] - B[7] >= -5864
 R9[1,7,6]: - 5938 x[1,7,6] + B[6] - B[7] >= -5865
 R9[1,7,8]: - 5938 x[1,7,8] - B[7] + B[8] >= -5867
 R9[1,7,9]: - 5938 x[1,7,9] - B[7] + B[9] >= -5904
 R9[1,7,10]: - 5938 x[1,7,10] - B[7] + B[10] >= -5870
 R9[1,8,1]: - 5938 x[1,8,1] + B[1] - B[8] >= -5879
 R9[1,8,2]: - 5938 x[1,8,2] + B[2] - B[8] >= -5909
 R9[1,8,3]: - 5938 x[1,8,3] + B[3] - B[8] >= -5885
 R9[1,8,4]: - 5938 x[1,8,4] + B[4] - B[8] >= -5873
 R9[1,8,5]: - 5938 x[1,8,5] + B[5] - B[8] >= -5904
 R9[1,8,6]: - 5938 x[1,8,6] + B[6] - B[8] >= -5909
 R9[1,8,7]: - 5938 x[1,8,7] + B[7] - B[8] >= -5890
 R9[1,8,9]: - 5938 x[1,8,9] - B[8] + B[9] >= -5895
 R9[1,8,10]: - 5938 x[1,8,10] - B[8] + B[10] >= -5902
 R9[1,9,1]: - 5938 x[1,9,1] + B[1] - B[9] >= -5802
 R9[1,9,2]: - 5938 x[1,9,2] + B[2] - B[9] >= -5798
 R9[1,9,3]: - 5938 x[1,9,3] + B[3] - B[9] >= -5807
 R9[1,9,4]: - 5938 x[1,9,4] + B[4] - B[9] >= -5828
 R9[1,9,5]: - 5938 x[1,9,5] + B[5] - B[9] >= -5799
 R9[1,9,6]: - 5938 x[1,9,6] + B[6] - B[9] >= -5822
 R9[1,9,7]: - 5938 x[1,9,7] + B[7] - B[9] >= -5839
 R9[1,9,8]: - 5938 x[1,9,8] + B[8] - B[9] >= -5828
 R9[1,9,10]: - 5938 x[1,9,10] - B[9] + B[10] >= -5840
 R9[1,10,1]: - 5938 x[1,10,1] + B[1] - B[10] >= -5903
 R9[1,10,2]: - 5938 x[1,10,2] + B[2] - B[10] >= -5898
 R9[1,10,3]: - 5938 x[1,10,3] + B[3] - B[10] >= -5906
 R9[1,10,4]: - 5938 x[1,10,4] + B[4] - B[10] >= -5919
 R9[1,10,5]: - 5938 x[1,10,5] + B[5] - B[10] >= -5910
 R9[1,10,6]: - 5938 x[1,10,6] + B[6] - B[10] >= -5887
 R9[1,10,7]: - 5938 x[1,10,7] + B[7] - B[10] >= -5878
 R9[1,10,8]: - 5938 x[1,10,8] + B[8] - B[10] >= -5903
 R9[1,10,9]: - 5938 x[1,10,9] + B[9] - B[10] >= -5910
 R9[2,1,2]: - 5938 x[2,1,2] - B[1] + B[2] >= -5815
 R9[2,1,3]: - 5938 x[2,1,3] - B[1] + B[3] >= -5816
 R9[2,1,4]: - 5938 x[2,1,4] - B[1] + B[4] >= -5834
 R9[2,1,5]: - 5938 x[2,1,5] - B[1] + B[5] >= -5803
 R9[2,1,6]: - 5938 x[2,1,6] - B[1] + B[6] >= -5813
 R9[2,1,7]: - 5938 x[2,1,7] - B[1] + B[7] >= -5823
 R9[2,1,8]: - 5938 x[2,1,8] - B[1] + B[8] >= -5813
 R9[2,1,9]: - 5938 x[2,1,9] - B[1] + B[9] >= -5825
 R9[2,1,10]: - 5938 x[2,1,10] - B[1] + B[10] >= -5827
 R9[2,2,1]: - 5938 x[2,2,1] + B[1] - B[2] >= -5828
 R9[2,2,3]: - 5938 x[2,2,3] - B[2] + B[3] >= -5834
 R9[2,2,4]: - 5938 x[2,2,4] - B[2] + B[4] >= -5810
 R9[2,2,5]: - 5938 x[2,2,5] - B[2] + B[5] >= -5811
 R9[2,2,6]: - 5938 x[2,2,6] - B[2] + B[6] >= -5837
 R9[2,2,7]: - 5938 x[2,2,7] - B[2] + B[7] >= -5794
 R9[2,2,8]: - 5938 x[2,2,8] - B[2] + B[8] >= -5839
 R9[2,2,9]: - 5938 x[2,2,9] - B[2] + B[9] >= -5835
 R9[2,2,10]: - 5938 x[2,2,10] - B[2] + B[10] >= -5833
 R9[2,3,1]: - 5938 x[2,3,1] + B[1] - B[3] >= -5827
 R9[2,3,2]: - 5938 x[2,3,2] + B[2] - B[3] >= -5857
 R9[2,3,4]: - 5938 x[2,3,4] - B[3] + B[4] >= -5824
 R9[2,3,5]: - 5938 x[2,3,5] - B[3] + B[5] >= -5840
 R9[2,3,6]: - 5938 x[2,3,6] - B[3] + B[6] >= -5829
 R9[2,3,7]: - 5938 x[2,3,7] - B[3] + B[7] >= -5863
 R9[2,3,8]: - 5938 x[2,3,8] - B[3] + B[8] >= -5843
 R9[2,3,9]: - 5938 x[2,3,9] - B[3] + B[9] >= -5843
 R9[2,3,10]: - 5938 x[2,3,10] - B[3] + B[10] >= -5829
 R9[2,4,1]: - 5938 x[2,4,1] + B[1] - B[4] >= -5896
 R9[2,4,2]: - 5938 x[2,4,2] + B[2] - B[4] >= -5892
 R9[2,4,3]: - 5938 x[2,4,3] + B[3] - B[4] >= -5909
 R9[2,4,5]: - 5938 x[2,4,5] - B[4] + B[5] >= -5890
 R9[2,4,6]: - 5938 x[2,4,6] - B[4] + B[6] >= -5925
 R9[2,4,7]: - 5938 x[2,4,7] - B[4] + B[7] >= -5882
 R9[2,4,8]: - 5938 x[2,4,8] - B[4] + B[8] >= -5879
 R9[2,4,9]: - 5938 x[2,4,9] - B[4] + B[9] >= -5918
 R9[2,4,10]: - 5938 x[2,4,10] - B[4] + B[10] >= -5882
 R9[2,5,1]: - 5938 x[2,5,1] + B[1] - B[5] >= -5827
 R9[2,5,2]: - 5938 x[2,5,2] + B[2] - B[5] >= -5813
 R9[2,5,3]: - 5938 x[2,5,3] + B[3] - B[5] >= -5844
 R9[2,5,4]: - 5938 x[2,5,4] + B[4] - B[5] >= -5820
 R9[2,5,6]: - 5938 x[2,5,6] - B[5] + B[6] >= -5840
 R9[2,5,7]: - 5938 x[2,5,7] - B[5] + B[7] >= -5854
 R9[2,5,8]: - 5938 x[2,5,8] - B[5] + B[8] >= -5843
 R9[2,5,9]: - 5938 x[2,5,9] - B[5] + B[9] >= -5834
 R9[2,5,10]: - 5938 x[2,5,10] - B[5] + B[10] >= -5851
 R9[2,6,1]: - 5938 x[2,6,1] + B[1] - B[6] >= -5853
 R9[2,6,2]: - 5938 x[2,6,2] + B[2] - B[6] >= -5882
 R9[2,6,3]: - 5938 x[2,6,3] + B[3] - B[6] >= -5836
 R9[2,6,4]: - 5938 x[2,6,4] + B[4] - B[6] >= -5836
 R9[2,6,5]: - 5938 x[2,6,5] + B[5] - B[6] >= -5866
 R9[2,6,7]: - 5938 x[2,6,7] - B[6] + B[7] >= -5850
 R9[2,6,8]: - 5938 x[2,6,8] - B[6] + B[8] >= -5834
 R9[2,6,9]: - 5938 x[2,6,9] - B[6] + B[9] >= -5871
 R9[2,6,10]: - 5938 x[2,6,10] - B[6] + B[10] >= -5850
 R9[2,7,1]: - 5938 x[2,7,1] + B[1] - B[7] >= -5926
 R9[2,7,2]: - 5938 x[2,7,2] + B[2] - B[7] >= -5892
 R9[2,7,3]: - 5938 x[2,7,3] + B[3] - B[7] >= -5913
 R9[2,7,4]: - 5938 x[2,7,4] + B[4] - B[7] >= -5892
 R9[2,7,5]: - 5938 x[2,7,5] + B[5] - B[7] >= -5900
 R9[2,7,6]: - 5938 x[2,7,6] + B[6] - B[7] >= -5894
 R9[2,7,8]: - 5938 x[2,7,8] - B[7] + B[8] >= -5920
 R9[2,7,9]: - 5938 x[2,7,9] - B[7] + B[9] >= -5923
 R9[2,7,10]: - 5938 x[2,7,10] - B[7] + B[10] >= -5909
 R9[2,8,1]: - 5938 x[2,8,1] + B[1] - B[8] >= -5885
 R9[2,8,2]: - 5938 x[2,8,2] + B[2] - B[8] >= -5923
 R9[2,8,3]: - 5938 x[2,8,3] + B[3] - B[8] >= -5899
 R9[2,8,4]: - 5938 x[2,8,4] + B[4] - B[8] >= -5900
 R9[2,8,5]: - 5938 x[2,8,5] + B[5] - B[8] >= -5933
 R9[2,8,6]: - 5938 x[2,8,6] + B[6] - B[8] >= -5895
 R9[2,8,7]: - 5938 x[2,8,7] + B[7] - B[8] >= -5913
 R9[2,8,9]: - 5938 x[2,8,9] - B[8] + B[9] >= -5902
 R9[2,8,10]: - 5938 x[2,8,10] - B[8] + B[10] >= -5932
 R9[2,9,1]: - 5938 x[2,9,1] + B[1] - B[9] >= -5918
 R9[2,9,2]: - 5938 x[2,9,2] + B[2] - B[9] >= -5902
 R9[2,9,3]: - 5938 x[2,9,3] + B[3] - B[9] >= -5906
 R9[2,9,4]: - 5938 x[2,9,4] + B[4] - B[9] >= -5910
 R9[2,9,5]: - 5938 x[2,9,5] + B[5] - B[9] >= -5922
 R9[2,9,6]: - 5938 x[2,9,6] + B[6] - B[9] >= -5910
 R9[2,9,7]: - 5938 x[2,9,7] + B[7] - B[9] >= -5889
 R9[2,9,8]: - 5938 x[2,9,8] + B[8] - B[9] >= -5920
 R9[2,9,10]: - 5938 x[2,9,10] - B[9] + B[10] >= -5920
 R9[2,10,1]: - 5938 x[2,10,1] + B[1] - B[10] >= -5863
 R9[2,10,2]: - 5938 x[2,10,2] + B[2] - B[10] >= -5878
 R9[2,10,3]: - 5938 x[2,10,3] + B[3] - B[10] >= -5905
 R9[2,10,4]: - 5938 x[2,10,4] + B[4] - B[10] >= -5861
 R9[2,10,5]: - 5938 x[2,10,5] + B[5] - B[10] >= -5875
 R9[2,10,6]: - 5938 x[2,10,6] + B[6] - B[10] >= -5901
 R9[2,10,7]: - 5938 x[2,10,7] + B[7] - B[10] >= -5901
 R9[2,10,8]: - 5938 x[2,10,8] + B[8] - B[10] >= -5867
 R9[2,10,9]: - 5938 x[2,10,9] + B[9] - B[10] >= -5879
 R10new[1,1,2]: - 33 x[1,0,2] - 7 x[1,3,2] - 8 x[1,4,2] - 13 x[1,5,2]
   - 7 x[1,6,2] - 14 x[1,7,2] - 11 x[1,8,2] - 45 x[1,9,2] - 26 x[1,10,2]
   - 32 x[2,0,2] - 11 x[2,3,2] - 34 x[2,4,2] - 49 x[2,5,2] - x[2,6,2]
   - 41 x[2,7,2] - 11 x[2,8,2] - 24 x[2,9,2] - 32 x[2,10,2] - 5938 z[1,1,2]
   - B[1] + B[2] >= -5938
 R10new[1,1,3]: - 39 x[1,0,3] - 22 x[1,2,3] - 25 x[1,4,3] - 46 x[1,5,3]
   - 25 x[1,6,3] - 43 x[1,7,3] - 35 x[1,8,3] - 36 x[1,9,3] - 18 x[1,10,3]
   - 26 x[2,0,3] - 9 x[2,2,3] - 17 x[2,4,3] - 18 x[2,5,3] - 47 x[2,6,3]
   - 20 x[2,7,3] - 35 x[2,8,3] - 20 x[2,9,3] - 5 x[2,10,3] - 5938 z[1,1,3]
   - B[1] + B[3] >= -5938
 R10new[1,1,4]: - 2 x[1,0,4] - 18 x[1,2,4] - 23 x[1,3,4] - 5 x[1,5,4]
   - 18 x[1,6,4] - 18 x[1,7,4] - 47 x[1,8,4] - 15 x[1,9,4] - 5 x[1,10,4]
   - 42 x[2,0,4] - 33 x[2,2,4] - 44 x[2,3,4] - 42 x[2,5,4] - 47 x[2,6,4]
   - 41 x[2,7,4] - 34 x[2,8,4] - 16 x[2,9,4] - 49 x[2,10,4] - 5938 z[1,1,4]
   - B[1] + B[4] >= -5938
 R10new[1,1,5]: - 36 x[1,0,5] - 10 x[1,2,5] - 23 x[1,3,5] - 6 x[1,4,5]
   - 30 x[1,6,5] - 45 x[1,7,5] - 16 x[1,8,5] - 44 x[1,9,5] - 14 x[1,10,5]
   - 30 x[2,0,5] - 32 x[2,2,5] - 28 x[2,3,5] - 36 x[2,4,5] - 17 x[2,6,5]
   - 33 x[2,7,5] - x[2,8,5] - 4 x[2,9,5] - 35 x[2,10,5] - 5938 z[1,1,5]
   - B[1] + B[5] >= -5938
 R10new[1,1,6]: - 13 x[1,0,6] - 14 x[1,2,6] - 39 x[1,3,6] - 36 x[1,4,6]
   - 3 x[1,5,6] - 44 x[1,7,6] - 11 x[1,8,6] - 21 x[1,9,6] - 37 x[1,10,6]
   - 10 x[2,0,6] - 6 x[2,2,6] - 39 x[2,3,6] - x[2,4,6] - 22 x[2,5,6]
   - 39 x[2,7,6] - 39 x[2,8,6] - 16 x[2,9,6] - 9 x[2,10,6] - 5938 z[1,1,6]
   - B[1] + B[6] >= -5938
 R10new[1,1,7]: - 46 x[1,0,7] - 49 x[1,2,7] - 17 x[1,3,7] - 19 x[1,4,7]
   - 43 x[1,5,7] - 41 x[1,6,7] - 30 x[1,8,7] - 4 x[1,9,7] - 46 x[1,10,7]
   - 17 x[2,0,7] - 49 x[2,2,7] - 5 x[2,3,7] - 44 x[2,4,7] - 8 x[2,5,7]
   - 33 x[2,6,7] - 21 x[2,8,7] - 37 x[2,9,7] - 9 x[2,10,7] - 5938 z[1,1,7]
   - B[1] + B[7] >= -5938
 R10new[1,1,8]: - 42 x[1,0,8] - 22 x[1,2,8] - 3 x[1,3,8] - 41 x[1,4,8]
   - 15 x[1,5,8] - 24 x[1,6,8] - 42 x[1,7,8] - 15 x[1,9,8] - 21 x[1,10,8]
   - 9 x[2,0,8] - 4 x[2,2,8] - 25 x[2,3,8] - 47 x[2,4,8] - 19 x[2,5,8]
   - 49 x[2,6,8] - 13 x[2,7,8] - 6 x[2,9,8] - 43 x[2,10,8] - 5938 z[1,1,8]
   - B[1] + B[8] >= -5938
 R10new[1,1,9]: - 45 x[1,0,9] - 7 x[1,2,9] - 47 x[1,3,9] - 40 x[1,4,9]
   - 19 x[1,5,9] - 11 x[1,6,9] - 5 x[1,7,9] - 25 x[1,8,9] - 14 x[1,10,9]
   - 16 x[2,0,9] - 8 x[2,2,9] - 25 x[2,3,9] - 8 x[2,4,9] - 28 x[2,5,9]
   - 12 x[2,6,9] - 10 x[2,7,9] - 32 x[2,8,9] - 31 x[2,10,9] - 5938 z[1,1,9]
   - B[1] + B[9] >= -5938
 R10new[1,1,10]: - 35 x[1,0,10] - 6 x[1,2,10] - 30 x[1,3,10] - 24 x[1,4,10]
   - 6 x[1,5,10] - 24 x[1,6,10] - 39 x[1,7,10] - 18 x[1,8,10] - 3 x[1,9,10]
   - 48 x[2,0,10] - 10 x[2,2,10] - 39 x[2,3,10] - 44 x[2,4,10]
   - 11 x[2,5,10] - 33 x[2,6,10] - 24 x[2,7,10] - 2 x[2,8,10] - 6 x[2,9,10]
   - 5938 z[1,1,10] - B[1] + B[10] >= -5938
 R10new[1,2,1]: - 15 x[1,0,1] - 25 x[1,3,1] - 35 x[1,4,1] - 37 x[1,5,1]
   - 15 x[1,6,1] - 23 x[1,7,1] - 41 x[1,8,1] - 41 x[1,9,1] - 21 x[1,10,1]
   - 42 x[2,0,1] - 41 x[2,3,1] - 30 x[2,4,1] - 35 x[2,5,1] - 30 x[2,6,1]
   - 7 x[2,7,1] - 49 x[2,8,1] - 8 x[2,9,1] - 47 x[2,10,1] - 5938 z[1,2,1]
   + B[1] - B[2] >= -5938
 R10new[1,2,3]: - 39 x[1,0,3] - 15 x[1,1,3] - 25 x[1,4,3] - 46 x[1,5,3]
   - 25 x[1,6,3] - 43 x[1,7,3] - 35 x[1,8,3] - 36 x[1,9,3] - 18 x[1,10,3]
   - 26 x[2,0,3] - 35 x[2,1,3] - 17 x[2,4,3] - 18 x[2,5,3] - 47 x[2,6,3]
   - 20 x[2,7,3] - 35 x[2,8,3] - 20 x[2,9,3] - 5 x[2,10,3] - 5938 z[1,2,3]
   - B[2] + B[3] >= -5938
 R10new[1,2,4]: - 2 x[1,0,4] - 29 x[1,1,4] - 23 x[1,3,4] - 5 x[1,5,4]
   - 18 x[1,6,4] - 18 x[1,7,4] - 47 x[1,8,4] - 15 x[1,9,4] - 5 x[1,10,4]
   - 42 x[2,0,4] - 17 x[2,1,4] - 44 x[2,3,4] - 42 x[2,5,4] - 47 x[2,6,4]
   - 41 x[2,7,4] - 34 x[2,8,4] - 16 x[2,9,4] - 49 x[2,10,4] - 5938 z[1,2,4]
   - B[2] + B[4] >= -5938
 R10new[1,2,5]: - 36 x[1,0,5] - 38 x[1,1,5] - 23 x[1,3,5] - 6 x[1,4,5]
   - 30 x[1,6,5] - 45 x[1,7,5] - 16 x[1,8,5] - 44 x[1,9,5] - 14 x[1,10,5]
   - 30 x[2,0,5] - 48 x[2,1,5] - 28 x[2,3,5] - 36 x[2,4,5] - 17 x[2,6,5]
   - 33 x[2,7,5] - x[2,8,5] - 4 x[2,9,5] - 35 x[2,10,5] - 5938 z[1,2,5]
   - B[2] + B[5] >= -5938
 R10new[1,2,6]: - 13 x[1,0,6] - 18 x[1,1,6] - 39 x[1,3,6] - 36 x[1,4,6]
   - 3 x[1,5,6] - 44 x[1,7,6] - 11 x[1,8,6] - 21 x[1,9,6] - 37 x[1,10,6]
   - 10 x[2,0,6] - 38 x[2,1,6] - 39 x[2,3,6] - x[2,4,6] - 22 x[2,5,6]
   - 39 x[2,7,6] - 39 x[2,8,6] - 16 x[2,9,6] - 9 x[2,10,6] - 5938 z[1,2,6]
   - B[2] + B[6] >= -5938
 R10new[1,2,7]: - 46 x[1,0,7] - x[1,1,7] - 17 x[1,3,7] - 19 x[1,4,7]
   - 43 x[1,5,7] - 41 x[1,6,7] - 30 x[1,8,7] - 4 x[1,9,7] - 46 x[1,10,7]
   - 17 x[2,0,7] - 28 x[2,1,7] - 5 x[2,3,7] - 44 x[2,4,7] - 8 x[2,5,7]
   - 33 x[2,6,7] - 21 x[2,8,7] - 37 x[2,9,7] - 9 x[2,10,7] - 5938 z[1,2,7]
   - B[2] + B[7] >= -5938
 R10new[1,2,8]: - 42 x[1,0,8] - 49 x[1,1,8] - 3 x[1,3,8] - 41 x[1,4,8]
   - 15 x[1,5,8] - 24 x[1,6,8] - 42 x[1,7,8] - 15 x[1,9,8] - 21 x[1,10,8]
   - 9 x[2,0,8] - 38 x[2,1,8] - 25 x[2,3,8] - 47 x[2,4,8] - 19 x[2,5,8]
   - 49 x[2,6,8] - 13 x[2,7,8] - 6 x[2,9,8] - 43 x[2,10,8] - 5938 z[1,2,8]
   - B[2] + B[8] >= -5938
 R10new[1,2,9]: - 45 x[1,0,9] - 11 x[1,1,9] - 47 x[1,3,9] - 40 x[1,4,9]
   - 19 x[1,5,9] - 11 x[1,6,9] - 5 x[1,7,9] - 25 x[1,8,9] - 14 x[1,10,9]
   - 16 x[2,0,9] - 26 x[2,1,9] - 25 x[2,3,9] - 8 x[2,4,9] - 28 x[2,5,9]
   - 12 x[2,6,9] - 10 x[2,7,9] - 32 x[2,8,9] - 31 x[2,10,9] - 5938 z[1,2,9]
   - B[2] + B[9] >= -5938
 R10new[1,2,10]: - 35 x[1,0,10] - 45 x[1,1,10] - 30 x[1,3,10]
   - 24 x[1,4,10] - 6 x[1,5,10] - 24 x[1,6,10] - 39 x[1,7,10]
   - 18 x[1,8,10] - 3 x[1,9,10] - 48 x[2,0,10] - 24 x[2,1,10]
   - 39 x[2,3,10] - 44 x[2,4,10] - 11 x[2,5,10] - 33 x[2,6,10]
   - 24 x[2,7,10] - 2 x[2,8,10] - 6 x[2,9,10] - 5938 z[1,2,10] - B[2]
   + B[10] >= -5938
 R10new[1,3,1]: - 15 x[1,0,1] - 28 x[1,2,1] - 35 x[1,4,1] - 37 x[1,5,1]
   - 15 x[1,6,1] - 23 x[1,7,1] - 41 x[1,8,1] - 41 x[1,9,1] - 21 x[1,10,1]
   - 42 x[2,0,1] - 15 x[2,2,1] - 30 x[2,4,1] - 35 x[2,5,1] - 30 x[2,6,1]
   - 7 x[2,7,1] - 49 x[2,8,1] - 8 x[2,9,1] - 47 x[2,10,1] - 5938 z[1,3,1]
   + B[1] - B[3] >= -5938
 R10new[1,3,2]: - 33 x[1,0,2] - 27 x[1,1,2] - 8 x[1,4,2] - 13 x[1,5,2]
   - 7 x[1,6,2] - 14 x[1,7,2] - 11 x[1,8,2] - 45 x[1,9,2] - 26 x[1,10,2]
   - 32 x[2,0,2] - 36 x[2,1,2] - 34 x[2,4,2] - 49 x[2,5,2] - x[2,6,2]
   - 41 x[2,7,2] - 11 x[2,8,2] - 24 x[2,9,2] - 32 x[2,10,2] - 5938 z[1,3,2]
   + B[2] - B[3] >= -5938
 R10new[1,3,4]: - 2 x[1,0,4] - 29 x[1,1,4] - 18 x[1,2,4] - 5 x[1,5,4]
   - 18 x[1,6,4] - 18 x[1,7,4] - 47 x[1,8,4] - 15 x[1,9,4] - 5 x[1,10,4]
   - 42 x[2,0,4] - 17 x[2,1,4] - 33 x[2,2,4] - 42 x[2,5,4] - 47 x[2,6,4]
   - 41 x[2,7,4] - 34 x[2,8,4] - 16 x[2,9,4] - 49 x[2,10,4] - 5938 z[1,3,4]
   - B[3] + B[4] >= -5938
 R10new[1,3,5]: - 36 x[1,0,5] - 38 x[1,1,5] - 10 x[1,2,5] - 6 x[1,4,5]
   - 30 x[1,6,5] - 45 x[1,7,5] - 16 x[1,8,5] - 44 x[1,9,5] - 14 x[1,10,5]
   - 30 x[2,0,5] - 48 x[2,1,5] - 32 x[2,2,5] - 36 x[2,4,5] - 17 x[2,6,5]
   - 33 x[2,7,5] - x[2,8,5] - 4 x[2,9,5] - 35 x[2,10,5] - 5938 z[1,3,5]
   - B[3] + B[5] >= -5938
 R10new[1,3,6]: - 13 x[1,0,6] - 18 x[1,1,6] - 14 x[1,2,6] - 36 x[1,4,6]
   - 3 x[1,5,6] - 44 x[1,7,6] - 11 x[1,8,6] - 21 x[1,9,6] - 37 x[1,10,6]
   - 10 x[2,0,6] - 38 x[2,1,6] - 6 x[2,2,6] - x[2,4,6] - 22 x[2,5,6]
   - 39 x[2,7,6] - 39 x[2,8,6] - 16 x[2,9,6] - 9 x[2,10,6] - 5938 z[1,3,6]
   - B[3] + B[6] >= -5938
 R10new[1,3,7]: - 46 x[1,0,7] - x[1,1,7] - 49 x[1,2,7] - 19 x[1,4,7]
   - 43 x[1,5,7] - 41 x[1,6,7] - 30 x[1,8,7] - 4 x[1,9,7] - 46 x[1,10,7]
   - 17 x[2,0,7] - 28 x[2,1,7] - 49 x[2,2,7] - 44 x[2,4,7] - 8 x[2,5,7]
   - 33 x[2,6,7] - 21 x[2,8,7] - 37 x[2,9,7] - 9 x[2,10,7] - 5938 z[1,3,7]
   - B[3] + B[7] >= -5938
 R10new[1,3,8]: - 42 x[1,0,8] - 49 x[1,1,8] - 22 x[1,2,8] - 41 x[1,4,8]
   - 15 x[1,5,8] - 24 x[1,6,8] - 42 x[1,7,8] - 15 x[1,9,8] - 21 x[1,10,8]
   - 9 x[2,0,8] - 38 x[2,1,8] - 4 x[2,2,8] - 47 x[2,4,8] - 19 x[2,5,8]
   - 49 x[2,6,8] - 13 x[2,7,8] - 6 x[2,9,8] - 43 x[2,10,8] - 5938 z[1,3,8]
   - B[3] + B[8] >= -5938
 R10new[1,3,9]: - 45 x[1,0,9] - 11 x[1,1,9] - 7 x[1,2,9] - 40 x[1,4,9]
   - 19 x[1,5,9] - 11 x[1,6,9] - 5 x[1,7,9] - 25 x[1,8,9] - 14 x[1,10,9]
   - 16 x[2,0,9] - 26 x[2,1,9] - 8 x[2,2,9] - 8 x[2,4,9] - 28 x[2,5,9]
   - 12 x[2,6,9] - 10 x[2,7,9] - 32 x[2,8,9] - 31 x[2,10,9] - 5938 z[1,3,9]
   - B[3] + B[9] >= -5938
 R10new[1,3,10]: - 35 x[1,0,10] - 45 x[1,1,10] - 6 x[1,2,10] - 24 x[1,4,10]
   - 6 x[1,5,10] - 24 x[1,6,10] - 39 x[1,7,10] - 18 x[1,8,10] - 3 x[1,9,10]
   - 48 x[2,0,10] - 24 x[2,1,10] - 10 x[2,2,10] - 44 x[2,4,10]
   - 11 x[2,5,10] - 33 x[2,6,10] - 24 x[2,7,10] - 2 x[2,8,10] - 6 x[2,9,10]
   - 5938 z[1,3,10] - B[3] + B[10] >= -5938
 R10new[1,4,1]: - 15 x[1,0,1] - 28 x[1,2,1] - 25 x[1,3,1] - 37 x[1,5,1]
   - 15 x[1,6,1] - 23 x[1,7,1] - 41 x[1,8,1] - 41 x[1,9,1] - 21 x[1,10,1]
   - 42 x[2,0,1] - 15 x[2,2,1] - 41 x[2,3,1] - 35 x[2,5,1] - 30 x[2,6,1]
   - 7 x[2,7,1] - 49 x[2,8,1] - 8 x[2,9,1] - 47 x[2,10,1] - 5938 z[1,4,1]
   + B[1] - B[4] >= -5938
 R10new[1,4,2]: - 33 x[1,0,2] - 27 x[1,1,2] - 7 x[1,3,2] - 13 x[1,5,2]
   - 7 x[1,6,2] - 14 x[1,7,2] - 11 x[1,8,2] - 45 x[1,9,2] - 26 x[1,10,2]
   - 32 x[2,0,2] - 36 x[2,1,2] - 11 x[2,3,2] - 49 x[2,5,2] - x[2,6,2]
   - 41 x[2,7,2] - 11 x[2,8,2] - 24 x[2,9,2] - 32 x[2,10,2] - 5938 z[1,4,2]
   + B[2] - B[4] >= -5938
 R10new[1,4,3]: - 39 x[1,0,3] - 15 x[1,1,3] - 22 x[1,2,3] - 46 x[1,5,3]
   - 25 x[1,6,3] - 43 x[1,7,3] - 35 x[1,8,3] - 36 x[1,9,3] - 18 x[1,10,3]
   - 26 x[2,0,3] - 35 x[2,1,3] - 9 x[2,2,3] - 18 x[2,5,3] - 47 x[2,6,3]
   - 20 x[2,7,3] - 35 x[2,8,3] - 20 x[2,9,3] - 5 x[2,10,3] - 5938 z[1,4,3]
   + B[3] - B[4] >= -5938
 R10new[1,4,5]: - 36 x[1,0,5] - 38 x[1,1,5] - 10 x[1,2,5] - 23 x[1,3,5]
   - 30 x[1,6,5] - 45 x[1,7,5] - 16 x[1,8,5] - 44 x[1,9,5] - 14 x[1,10,5]
   - 30 x[2,0,5] - 48 x[2,1,5] - 32 x[2,2,5] - 28 x[2,3,5] - 17 x[2,6,5]
   - 33 x[2,7,5] - x[2,8,5] - 4 x[2,9,5] - 35 x[2,10,5] - 5938 z[1,4,5]
   - B[4] + B[5] >= -5938
 R10new[1,4,6]: - 13 x[1,0,6] - 18 x[1,1,6] - 14 x[1,2,6] - 39 x[1,3,6]
   - 3 x[1,5,6] - 44 x[1,7,6] - 11 x[1,8,6] - 21 x[1,9,6] - 37 x[1,10,6]
   - 10 x[2,0,6] - 38 x[2,1,6] - 6 x[2,2,6] - 39 x[2,3,6] - 22 x[2,5,6]
   - 39 x[2,7,6] - 39 x[2,8,6] - 16 x[2,9,6] - 9 x[2,10,6] - 5938 z[1,4,6]
   - B[4] + B[6] >= -5938
 R10new[1,4,7]: - 46 x[1,0,7] - x[1,1,7] - 49 x[1,2,7] - 17 x[1,3,7]
   - 43 x[1,5,7] - 41 x[1,6,7] - 30 x[1,8,7] - 4 x[1,9,7] - 46 x[1,10,7]
   - 17 x[2,0,7] - 28 x[2,1,7] - 49 x[2,2,7] - 5 x[2,3,7] - 8 x[2,5,7]
   - 33 x[2,6,7] - 21 x[2,8,7] - 37 x[2,9,7] - 9 x[2,10,7] - 5938 z[1,4,7]
   - B[4] + B[7] >= -5938
 R10new[1,4,8]: - 42 x[1,0,8] - 49 x[1,1,8] - 22 x[1,2,8] - 3 x[1,3,8]
   - 15 x[1,5,8] - 24 x[1,6,8] - 42 x[1,7,8] - 15 x[1,9,8] - 21 x[1,10,8]
   - 9 x[2,0,8] - 38 x[2,1,8] - 4 x[2,2,8] - 25 x[2,3,8] - 19 x[2,5,8]
   - 49 x[2,6,8] - 13 x[2,7,8] - 6 x[2,9,8] - 43 x[2,10,8] - 5938 z[1,4,8]
   - B[4] + B[8] >= -5938
 R10new[1,4,9]: - 45 x[1,0,9] - 11 x[1,1,9] - 7 x[1,2,9] - 47 x[1,3,9]
   - 19 x[1,5,9] - 11 x[1,6,9] - 5 x[1,7,9] - 25 x[1,8,9] - 14 x[1,10,9]
   - 16 x[2,0,9] - 26 x[2,1,9] - 8 x[2,2,9] - 25 x[2,3,9] - 28 x[2,5,9]
   - 12 x[2,6,9] - 10 x[2,7,9] - 32 x[2,8,9] - 31 x[2,10,9] - 5938 z[1,4,9]
   - B[4] + B[9] >= -5938
 R10new[1,4,10]: - 35 x[1,0,10] - 45 x[1,1,10] - 6 x[1,2,10] - 30 x[1,3,10]
   - 6 x[1,5,10] - 24 x[1,6,10] - 39 x[1,7,10] - 18 x[1,8,10] - 3 x[1,9,10]
   - 48 x[2,0,10] - 24 x[2,1,10] - 10 x[2,2,10] - 39 x[2,3,10]
   - 11 x[2,5,10] - 33 x[2,6,10] - 24 x[2,7,10] - 2 x[2,8,10] - 6 x[2,9,10]
   - 5938 z[1,4,10] - B[4] + B[10] >= -5938
 R10new[1,5,1]: - 15 x[1,0,1] - 28 x[1,2,1] - 25 x[1,3,1] - 35 x[1,4,1]
   - 15 x[1,6,1] - 23 x[1,7,1] - 41 x[1,8,1] - 41 x[1,9,1] - 21 x[1,10,1]
   - 42 x[2,0,1] - 15 x[2,2,1] - 41 x[2,3,1] - 30 x[2,4,1] - 30 x[2,6,1]
   - 7 x[2,7,1] - 49 x[2,8,1] - 8 x[2,9,1] - 47 x[2,10,1] - 5938 z[1,5,1]
   + B[1] - B[5] >= -5938
 R10new[1,5,2]: - 33 x[1,0,2] - 27 x[1,1,2] - 7 x[1,3,2] - 8 x[1,4,2]
   - 7 x[1,6,2] - 14 x[1,7,2] - 11 x[1,8,2] - 45 x[1,9,2] - 26 x[1,10,2]
   - 32 x[2,0,2] - 36 x[2,1,2] - 11 x[2,3,2] - 34 x[2,4,2] - x[2,6,2]
   - 41 x[2,7,2] - 11 x[2,8,2] - 24 x[2,9,2] - 32 x[2,10,2] - 5938 z[1,5,2]
   + B[2] - B[5] >= -5938
 R10new[1,5,3]: - 39 x[1,0,3] - 15 x[1,1,3] - 22 x[1,2,3] - 25 x[1,4,3]
   - 25 x[1,6,3] - 43 x[1,7,3] - 35 x[1,8,3] - 36 x[1,9,3] - 18 x[1,10,3]
   - 26 x[2,0,3] - 35 x[2,1,3] - 9 x[2,2,3] - 17 x[2,4,3] - 47 x[2,6,3]
   - 20 x[2,7,3] - 35 x[2,8,3] - 20 x[2,9,3] - 5 x[2,10,3] - 5938 z[1,5,3]
   + B[3] - B[5] >= -5938
 R10new[1,5,4]: - 2 x[1,0,4] - 29 x[1,1,4] - 18 x[1,2,4] - 23 x[1,3,4]
   - 18 x[1,6,4] - 18 x[1,7,4] - 47 x[1,8,4] - 15 x[1,9,4] - 5 x[1,10,4]
   - 42 x[2,0,4] - 17 x[2,1,4] - 33 x[2,2,4] - 44 x[2,3,4] - 47 x[2,6,4]
   - 41 x[2,7,4] - 34 x[2,8,4] - 16 x[2,9,4] - 49 x[2,10,4] - 5938 z[1,5,4]
   + B[4] - B[5] >= -5938
 R10new[1,5,6]: - 13 x[1,0,6] - 18 x[1,1,6] - 14 x[1,2,6] - 39 x[1,3,6]
   - 36 x[1,4,6] - 44 x[1,7,6] - 11 x[1,8,6] - 21 x[1,9,6] - 37 x[1,10,6]
   - 10 x[2,0,6] - 38 x[2,1,6] - 6 x[2,2,6] - 39 x[2,3,6] - x[2,4,6]
   - 39 x[2,7,6] - 39 x[2,8,6] - 16 x[2,9,6] - 9 x[2,10,6] - 5938 z[1,5,6]
   - B[5] + B[6] >= -5938
 R10new[1,5,7]: - 46 x[1,0,7] - x[1,1,7] - 49 x[1,2,7] - 17 x[1,3,7]
   - 19 x[1,4,7] - 41 x[1,6,7] - 30 x[1,8,7] - 4 x[1,9,7] - 46 x[1,10,7]
   - 17 x[2,0,7] - 28 x[2,1,7] - 49 x[2,2,7] - 5 x[2,3,7] - 44 x[2,4,7]
   - 33 x[2,6,7] - 21 x[2,8,7] - 37 x[2,9,7] - 9 x[2,10,7] - 5938 z[1,5,7]
   - B[5] + B[7] >= -5938
 R10new[1,5,8]: - 42 x[1,0,8] - 49 x[1,1,8] - 22 x[1,2,8] - 3 x[1,3,8]
   - 41 x[1,4,8] - 24 x[1,6,8] - 42 x[1,7,8] - 15 x[1,9,8] - 21 x[1,10,8]
   - 9 x[2,0,8] - 38 x[2,1,8] - 4 x[2,2,8] - 25 x[2,3,8] - 47 x[2,4,8]
   - 49 x[2,6,8] - 13 x[2,7,8] - 6 x[2,9,8] - 43 x[2,10,8] - 5938 z[1,5,8]
   - B[5] + B[8] >= -5938
 R10new[1,5,9]: - 45 x[1,0,9] - 11 x[1,1,9] - 7 x[1,2,9] - 47 x[1,3,9]
   - 40 x[1,4,9] - 11 x[1,6,9] - 5 x[1,7,9] - 25 x[1,8,9] - 14 x[1,10,9]
   - 16 x[2,0,9] - 26 x[2,1,9] - 8 x[2,2,9] - 25 x[2,3,9] - 8 x[2,4,9]
   - 12 x[2,6,9] - 10 x[2,7,9] - 32 x[2,8,9] - 31 x[2,10,9] - 5938 z[1,5,9]
   - B[5] + B[9] >= -5938
 R10new[1,5,10]: - 35 x[1,0,10] - 45 x[1,1,10] - 6 x[1,2,10] - 30 x[1,3,10]
   - 24 x[1,4,10] - 24 x[1,6,10] - 39 x[1,7,10] - 18 x[1,8,10]
   - 3 x[1,9,10] - 48 x[2,0,10] - 24 x[2,1,10] - 10 x[2,2,10]
   - 39 x[2,3,10] - 44 x[2,4,10] - 33 x[2,6,10] - 24 x[2,7,10]
   - 2 x[2,8,10] - 6 x[2,9,10] - 5938 z[1,5,10] - B[5] + B[10] >= -5938
 R10new[1,6,1]: - 15 x[1,0,1] - 28 x[1,2,1] - 25 x[1,3,1] - 35 x[1,4,1]
   - 37 x[1,5,1] - 23 x[1,7,1] - 41 x[1,8,1] - 41 x[1,9,1] - 21 x[1,10,1]
   - 42 x[2,0,1] - 15 x[2,2,1] - 41 x[2,3,1] - 30 x[2,4,1] - 35 x[2,5,1]
   - 7 x[2,7,1] - 49 x[2,8,1] - 8 x[2,9,1] - 47 x[2,10,1] - 5938 z[1,6,1]
   + B[1] - B[6] >= -5938
 R10new[1,6,2]: - 33 x[1,0,2] - 27 x[1,1,2] - 7 x[1,3,2] - 8 x[1,4,2]
   - 13 x[1,5,2] - 14 x[1,7,2] - 11 x[1,8,2] - 45 x[1,9,2] - 26 x[1,10,2]
   - 32 x[2,0,2] - 36 x[2,1,2] - 11 x[2,3,2] - 34 x[2,4,2] - 49 x[2,5,2]
   - 41 x[2,7,2] - 11 x[2,8,2] - 24 x[2,9,2] - 32 x[2,10,2] - 5938 z[1,6,2]
   + B[2] - B[6] >= -5938
 R10new[1,6,3]: - 39 x[1,0,3] - 15 x[1,1,3] - 22 x[1,2,3] - 25 x[1,4,3]
   - 46 x[1,5,3] - 43 x[1,7,3] - 35 x[1,8,3] - 36 x[1,9,3] - 18 x[1,10,3]
   - 26 x[2,0,3] - 35 x[2,1,3] - 9 x[2,2,3] - 17 x[2,4,3] - 18 x[2,5,3]
   - 20 x[2,7,3] - 35 x[2,8,3] - 20 x[2,9,3] - 5 x[2,10,3] - 5938 z[1,6,3]
   + B[3] - B[6] >= -5938
 R10new[1,6,4]: - 2 x[1,0,4] - 29 x[1,1,4] - 18 x[1,2,4] - 23 x[1,3,4]
   - 5 x[1,5,4] - 18 x[1,7,4] - 47 x[1,8,4] - 15 x[1,9,4] - 5 x[1,10,4]
   - 42 x[2,0,4] - 17 x[2,1,4] - 33 x[2,2,4] - 44 x[2,3,4] - 42 x[2,5,4]
   - 41 x[2,7,4] - 34 x[2,8,4] - 16 x[2,9,4] - 49 x[2,10,4] - 5938 z[1,6,4]
   + B[4] - B[6] >= -5938
 R10new[1,6,5]: - 36 x[1,0,5] - 38 x[1,1,5] - 10 x[1,2,5] - 23 x[1,3,5]
   - 6 x[1,4,5] - 45 x[1,7,5] - 16 x[1,8,5] - 44 x[1,9,5] - 14 x[1,10,5]
   - 30 x[2,0,5] - 48 x[2,1,5] - 32 x[2,2,5] - 28 x[2,3,5] - 36 x[2,4,5]
   - 33 x[2,7,5] - x[2,8,5] - 4 x[2,9,5] - 35 x[2,10,5] - 5938 z[1,6,5]
   + B[5] - B[6] >= -5938
 R10new[1,6,7]: - 46 x[1,0,7] - x[1,1,7] - 49 x[1,2,7] - 17 x[1,3,7]
   - 19 x[1,4,7] - 43 x[1,5,7] - 30 x[1,8,7] - 4 x[1,9,7] - 46 x[1,10,7]
   - 17 x[2,0,7] - 28 x[2,1,7] - 49 x[2,2,7] - 5 x[2,3,7] - 44 x[2,4,7]
   - 8 x[2,5,7] - 21 x[2,8,7] - 37 x[2,9,7] - 9 x[2,10,7] - 5938 z[1,6,7]
   - B[6] + B[7] >= -5938
 R10new[1,6,8]: - 42 x[1,0,8] - 49 x[1,1,8] - 22 x[1,2,8] - 3 x[1,3,8]
   - 41 x[1,4,8] - 15 x[1,5,8] - 42 x[1,7,8] - 15 x[1,9,8] - 21 x[1,10,8]
   - 9 x[2,0,8] - 38 x[2,1,8] - 4 x[2,2,8] - 25 x[2,3,8] - 47 x[2,4,8]
   - 19 x[2,5,8] - 13 x[2,7,8] - 6 x[2,9,8] - 43 x[2,10,8] - 5938 z[1,6,8]
   - B[6] + B[8] >= -5938
 R10new[1,6,9]: - 45 x[1,0,9] - 11 x[1,1,9] - 7 x[1,2,9] - 47 x[1,3,9]
   - 40 x[1,4,9] - 19 x[1,5,9] - 5 x[1,7,9] - 25 x[1,8,9] - 14 x[1,10,9]
   - 16 x[2,0,9] - 26 x[2,1,9] - 8 x[2,2,9] - 25 x[2,3,9] - 8 x[2,4,9]
   - 28 x[2,5,9] - 10 x[2,7,9] - 32 x[2,8,9] - 31 x[2,10,9] - 5938 z[1,6,9]
   - B[6] + B[9] >= -5938
 R10new[1,6,10]: - 35 x[1,0,10] - 45 x[1,1,10] - 6 x[1,2,10] - 30 x[1,3,10]
   - 24 x[1,4,10] - 6 x[1,5,10] - 39 x[1,7,10] - 18 x[1,8,10] - 3 x[1,9,10]
   - 48 x[2,0,10] - 24 x[2,1,10] - 10 x[2,2,10] - 39 x[2,3,10]
   - 44 x[2,4,10] - 11 x[2,5,10] - 24 x[2,7,10] - 2 x[2,8,10] - 6 x[2,9,10]
   - 5938 z[1,6,10] - B[6] + B[10] >= -5938
 R10new[1,7,1]: - 15 x[1,0,1] - 28 x[1,2,1] - 25 x[1,3,1] - 35 x[1,4,1]
   - 37 x[1,5,1] - 15 x[1,6,1] - 41 x[1,8,1] - 41 x[1,9,1] - 21 x[1,10,1]
   - 42 x[2,0,1] - 15 x[2,2,1] - 41 x[2,3,1] - 30 x[2,4,1] - 35 x[2,5,1]
   - 30 x[2,6,1] - 49 x[2,8,1] - 8 x[2,9,1] - 47 x[2,10,1] - 5938 z[1,7,1]
   + B[1] - B[7] >= -5938
 R10new[1,7,2]: - 33 x[1,0,2] - 27 x[1,1,2] - 7 x[1,3,2] - 8 x[1,4,2]
   - 13 x[1,5,2] - 7 x[1,6,2] - 11 x[1,8,2] - 45 x[1,9,2] - 26 x[1,10,2]
   - 32 x[2,0,2] - 36 x[2,1,2] - 11 x[2,3,2] - 34 x[2,4,2] - 49 x[2,5,2]
   - x[2,6,2] - 11 x[2,8,2] - 24 x[2,9,2] - 32 x[2,10,2] - 5938 z[1,7,2]
   + B[2] - B[7] >= -5938
 R10new[1,7,3]: - 39 x[1,0,3] - 15 x[1,1,3] - 22 x[1,2,3] - 25 x[1,4,3]
   - 46 x[1,5,3] - 25 x[1,6,3] - 35 x[1,8,3] - 36 x[1,9,3] - 18 x[1,10,3]
   - 26 x[2,0,3] - 35 x[2,1,3] - 9 x[2,2,3] - 17 x[2,4,3] - 18 x[2,5,3]
   - 47 x[2,6,3] - 35 x[2,8,3] - 20 x[2,9,3] - 5 x[2,10,3] - 5938 z[1,7,3]
   + B[3] - B[7] >= -5938
 R10new[1,7,4]: - 2 x[1,0,4] - 29 x[1,1,4] - 18 x[1,2,4] - 23 x[1,3,4]
   - 5 x[1,5,4] - 18 x[1,6,4] - 47 x[1,8,4] - 15 x[1,9,4] - 5 x[1,10,4]
   - 42 x[2,0,4] - 17 x[2,1,4] - 33 x[2,2,4] - 44 x[2,3,4] - 42 x[2,5,4]
   - 47 x[2,6,4] - 34 x[2,8,4] - 16 x[2,9,4] - 49 x[2,10,4] - 5938 z[1,7,4]
   + B[4] - B[7] >= -5938
 R10new[1,7,5]: - 36 x[1,0,5] - 38 x[1,1,5] - 10 x[1,2,5] - 23 x[1,3,5]
   - 6 x[1,4,5] - 30 x[1,6,5] - 16 x[1,8,5] - 44 x[1,9,5] - 14 x[1,10,5]
   - 30 x[2,0,5] - 48 x[2,1,5] - 32 x[2,2,5] - 28 x[2,3,5] - 36 x[2,4,5]
   - 17 x[2,6,5] - x[2,8,5] - 4 x[2,9,5] - 35 x[2,10,5] - 5938 z[1,7,5]
   + B[5] - B[7] >= -5938
 R10new[1,7,6]: - 13 x[1,0,6] - 18 x[1,1,6] - 14 x[1,2,6] - 39 x[1,3,6]
   - 36 x[1,4,6] - 3 x[1,5,6] - 11 x[1,8,6] - 21 x[1,9,6] - 37 x[1,10,6]
   - 10 x[2,0,6] - 38 x[2,1,6] - 6 x[2,2,6] - 39 x[2,3,6] - x[2,4,6]
   - 22 x[2,5,6] - 39 x[2,8,6] - 16 x[2,9,6] - 9 x[2,10,6] - 5938 z[1,7,6]
   + B[6] - B[7] >= -5938
 R10new[1,7,8]: - 42 x[1,0,8] - 49 x[1,1,8] - 22 x[1,2,8] - 3 x[1,3,8]
   - 41 x[1,4,8] - 15 x[1,5,8] - 24 x[1,6,8] - 15 x[1,9,8] - 21 x[1,10,8]
   - 9 x[2,0,8] - 38 x[2,1,8] - 4 x[2,2,8] - 25 x[2,3,8] - 47 x[2,4,8]
   - 19 x[2,5,8] - 49 x[2,6,8] - 6 x[2,9,8] - 43 x[2,10,8] - 5938 z[1,7,8]
   - B[7] + B[8] >= -5938
 R10new[1,7,9]: - 45 x[1,0,9] - 11 x[1,1,9] - 7 x[1,2,9] - 47 x[1,3,9]
   - 40 x[1,4,9] - 19 x[1,5,9] - 11 x[1,6,9] - 25 x[1,8,9] - 14 x[1,10,9]
   - 16 x[2,0,9] - 26 x[2,1,9] - 8 x[2,2,9] - 25 x[2,3,9] - 8 x[2,4,9]
   - 28 x[2,5,9] - 12 x[2,6,9] - 32 x[2,8,9] - 31 x[2,10,9] - 5938 z[1,7,9]
   - B[7] + B[9] >= -5938
 R10new[1,7,10]: - 35 x[1,0,10] - 45 x[1,1,10] - 6 x[1,2,10] - 30 x[1,3,10]
   - 24 x[1,4,10] - 6 x[1,5,10] - 24 x[1,6,10] - 18 x[1,8,10] - 3 x[1,9,10]
   - 48 x[2,0,10] - 24 x[2,1,10] - 10 x[2,2,10] - 39 x[2,3,10]
   - 44 x[2,4,10] - 11 x[2,5,10] - 33 x[2,6,10] - 2 x[2,8,10] - 6 x[2,9,10]
   - 5938 z[1,7,10] - B[7] + B[10] >= -5938
 R10new[1,8,1]: - 15 x[1,0,1] - 28 x[1,2,1] - 25 x[1,3,1] - 35 x[1,4,1]
   - 37 x[1,5,1] - 15 x[1,6,1] - 23 x[1,7,1] - 41 x[1,9,1] - 21 x[1,10,1]
   - 42 x[2,0,1] - 15 x[2,2,1] - 41 x[2,3,1] - 30 x[2,4,1] - 35 x[2,5,1]
   - 30 x[2,6,1] - 7 x[2,7,1] - 8 x[2,9,1] - 47 x[2,10,1] - 5938 z[1,8,1]
   + B[1] - B[8] >= -5938
 R10new[1,8,2]: - 33 x[1,0,2] - 27 x[1,1,2] - 7 x[1,3,2] - 8 x[1,4,2]
   - 13 x[1,5,2] - 7 x[1,6,2] - 14 x[1,7,2] - 45 x[1,9,2] - 26 x[1,10,2]
   - 32 x[2,0,2] - 36 x[2,1,2] - 11 x[2,3,2] - 34 x[2,4,2] - 49 x[2,5,2]
   - x[2,6,2] - 41 x[2,7,2] - 24 x[2,9,2] - 32 x[2,10,2] - 5938 z[1,8,2]
   + B[2] - B[8] >= -5938
 R10new[1,8,3]: - 39 x[1,0,3] - 15 x[1,1,3] - 22 x[1,2,3] - 25 x[1,4,3]
   - 46 x[1,5,3] - 25 x[1,6,3] - 43 x[1,7,3] - 36 x[1,9,3] - 18 x[1,10,3]
   - 26 x[2,0,3] - 35 x[2,1,3] - 9 x[2,2,3] - 17 x[2,4,3] - 18 x[2,5,3]
   - 47 x[2,6,3] - 20 x[2,7,3] - 20 x[2,9,3] - 5 x[2,10,3] - 5938 z[1,8,3]
   + B[3] - B[8] >= -5938
 R10new[1,8,4]: - 2 x[1,0,4] - 29 x[1,1,4] - 18 x[1,2,4] - 23 x[1,3,4]
   - 5 x[1,5,4] - 18 x[1,6,4] - 18 x[1,7,4] - 15 x[1,9,4] - 5 x[1,10,4]
   - 42 x[2,0,4] - 17 x[2,1,4] - 33 x[2,2,4] - 44 x[2,3,4] - 42 x[2,5,4]
   - 47 x[2,6,4] - 41 x[2,7,4] - 16 x[2,9,4] - 49 x[2,10,4] - 5938 z[1,8,4]
   + B[4] - B[8] >= -5938
 R10new[1,8,5]: - 36 x[1,0,5] - 38 x[1,1,5] - 10 x[1,2,5] - 23 x[1,3,5]
   - 6 x[1,4,5] - 30 x[1,6,5] - 45 x[1,7,5] - 44 x[1,9,5] - 14 x[1,10,5]
   - 30 x[2,0,5] - 48 x[2,1,5] - 32 x[2,2,5] - 28 x[2,3,5] - 36 x[2,4,5]
   - 17 x[2,6,5] - 33 x[2,7,5] - 4 x[2,9,5] - 35 x[2,10,5] - 5938 z[1,8,5]
   + B[5] - B[8] >= -5938
 R10new[1,8,6]: - 13 x[1,0,6] - 18 x[1,1,6] - 14 x[1,2,6] - 39 x[1,3,6]
   - 36 x[1,4,6] - 3 x[1,5,6] - 44 x[1,7,6] - 21 x[1,9,6] - 37 x[1,10,6]
   - 10 x[2,0,6] - 38 x[2,1,6] - 6 x[2,2,6] - 39 x[2,3,6] - x[2,4,6]
   - 22 x[2,5,6] - 39 x[2,7,6] - 16 x[2,9,6] - 9 x[2,10,6] - 5938 z[1,8,6]
   + B[6] - B[8] >= -5938
 R10new[1,8,7]: - 46 x[1,0,7] - x[1,1,7] - 49 x[1,2,7] - 17 x[1,3,7]
   - 19 x[1,4,7] - 43 x[1,5,7] - 41 x[1,6,7] - 4 x[1,9,7] - 46 x[1,10,7]
   - 17 x[2,0,7] - 28 x[2,1,7] - 49 x[2,2,7] - 5 x[2,3,7] - 44 x[2,4,7]
   - 8 x[2,5,7] - 33 x[2,6,7] - 37 x[2,9,7] - 9 x[2,10,7] - 5938 z[1,8,7]
   + B[7] - B[8] >= -5938
 R10new[1,8,9]: - 45 x[1,0,9] - 11 x[1,1,9] - 7 x[1,2,9] - 47 x[1,3,9]
   - 40 x[1,4,9] - 19 x[1,5,9] - 11 x[1,6,9] - 5 x[1,7,9] - 14 x[1,10,9]
   - 16 x[2,0,9] - 26 x[2,1,9] - 8 x[2,2,9] - 25 x[2,3,9] - 8 x[2,4,9]
   - 28 x[2,5,9] - 12 x[2,6,9] - 10 x[2,7,9] - 31 x[2,10,9] - 5938 z[1,8,9]
   - B[8] + B[9] >= -5938
 R10new[1,8,10]: - 35 x[1,0,10] - 45 x[1,1,10] - 6 x[1,2,10] - 30 x[1,3,10]
   - 24 x[1,4,10] - 6 x[1,5,10] - 24 x[1,6,10] - 39 x[1,7,10] - 3 x[1,9,10]
   - 48 x[2,0,10] - 24 x[2,1,10] - 10 x[2,2,10] - 39 x[2,3,10]
   - 44 x[2,4,10] - 11 x[2,5,10] - 33 x[2,6,10] - 24 x[2,7,10]
   - 6 x[2,9,10] - 5938 z[1,8,10] - B[8] + B[10] >= -5938
 R10new[1,9,1]: - 15 x[1,0,1] - 28 x[1,2,1] - 25 x[1,3,1] - 35 x[1,4,1]
   - 37 x[1,5,1] - 15 x[1,6,1] - 23 x[1,7,1] - 41 x[1,8,1] - 21 x[1,10,1]
   - 42 x[2,0,1] - 15 x[2,2,1] - 41 x[2,3,1] - 30 x[2,4,1] - 35 x[2,5,1]
   - 30 x[2,6,1] - 7 x[2,7,1] - 49 x[2,8,1] - 47 x[2,10,1] - 5938 z[1,9,1]
   + B[1] - B[9] >= -5938
 R10new[1,9,2]: - 33 x[1,0,2] - 27 x[1,1,2] - 7 x[1,3,2] - 8 x[1,4,2]
   - 13 x[1,5,2] - 7 x[1,6,2] - 14 x[1,7,2] - 11 x[1,8,2] - 26 x[1,10,2]
   - 32 x[2,0,2] - 36 x[2,1,2] - 11 x[2,3,2] - 34 x[2,4,2] - 49 x[2,5,2]
   - x[2,6,2] - 41 x[2,7,2] - 11 x[2,8,2] - 32 x[2,10,2] - 5938 z[1,9,2]
   + B[2] - B[9] >= -5938
 R10new[1,9,3]: - 39 x[1,0,3] - 15 x[1,1,3] - 22 x[1,2,3] - 25 x[1,4,3]
   - 46 x[1,5,3] - 25 x[1,6,3] - 43 x[1,7,3] - 35 x[1,8,3] - 18 x[1,10,3]
   - 26 x[2,0,3] - 35 x[2,1,3] - 9 x[2,2,3] - 17 x[2,4,3] - 18 x[2,5,3]
   - 47 x[2,6,3] - 20 x[2,7,3] - 35 x[2,8,3] - 5 x[2,10,3] - 5938 z[1,9,3]
   + B[3] - B[9] >= -5938
 R10new[1,9,4]: - 2 x[1,0,4] - 29 x[1,1,4] - 18 x[1,2,4] - 23 x[1,3,4]
   - 5 x[1,5,4] - 18 x[1,6,4] - 18 x[1,7,4] - 47 x[1,8,4] - 5 x[1,10,4]
   - 42 x[2,0,4] - 17 x[2,1,4] - 33 x[2,2,4] - 44 x[2,3,4] - 42 x[2,5,4]
   - 47 x[2,6,4] - 41 x[2,7,4] - 34 x[2,8,4] - 49 x[2,10,4] - 5938 z[1,9,4]
   + B[4] - B[9] >= -5938
 R10new[1,9,5]: - 36 x[1,0,5] - 38 x[1,1,5] - 10 x[1,2,5] - 23 x[1,3,5]
   - 6 x[1,4,5] - 30 x[1,6,5] - 45 x[1,7,5] - 16 x[1,8,5] - 14 x[1,10,5]
   - 30 x[2,0,5] - 48 x[2,1,5] - 32 x[2,2,5] - 28 x[2,3,5] - 36 x[2,4,5]
   - 17 x[2,6,5] - 33 x[2,7,5] - x[2,8,5] - 35 x[2,10,5] - 5938 z[1,9,5]
   + B[5] - B[9] >= -5938
 R10new[1,9,6]: - 13 x[1,0,6] - 18 x[1,1,6] - 14 x[1,2,6] - 39 x[1,3,6]
   - 36 x[1,4,6] - 3 x[1,5,6] - 44 x[1,7,6] - 11 x[1,8,6] - 37 x[1,10,6]
   - 10 x[2,0,6] - 38 x[2,1,6] - 6 x[2,2,6] - 39 x[2,3,6] - x[2,4,6]
   - 22 x[2,5,6] - 39 x[2,7,6] - 39 x[2,8,6] - 9 x[2,10,6] - 5938 z[1,9,6]
   + B[6] - B[9] >= -5938
 R10new[1,9,7]: - 46 x[1,0,7] - x[1,1,7] - 49 x[1,2,7] - 17 x[1,3,7]
   - 19 x[1,4,7] - 43 x[1,5,7] - 41 x[1,6,7] - 30 x[1,8,7] - 46 x[1,10,7]
   - 17 x[2,0,7] - 28 x[2,1,7] - 49 x[2,2,7] - 5 x[2,3,7] - 44 x[2,4,7]
   - 8 x[2,5,7] - 33 x[2,6,7] - 21 x[2,8,7] - 9 x[2,10,7] - 5938 z[1,9,7]
   + B[7] - B[9] >= -5938
 R10new[1,9,8]: - 42 x[1,0,8] - 49 x[1,1,8] - 22 x[1,2,8] - 3 x[1,3,8]
   - 41 x[1,4,8] - 15 x[1,5,8] - 24 x[1,6,8] - 42 x[1,7,8] - 21 x[1,10,8]
   - 9 x[2,0,8] - 38 x[2,1,8] - 4 x[2,2,8] - 25 x[2,3,8] - 47 x[2,4,8]
   - 19 x[2,5,8] - 49 x[2,6,8] - 13 x[2,7,8] - 43 x[2,10,8] - 5938 z[1,9,8]
   + B[8] - B[9] >= -5938
 R10new[1,9,10]: - 35 x[1,0,10] - 45 x[1,1,10] - 6 x[1,2,10] - 30 x[1,3,10]
   - 24 x[1,4,10] - 6 x[1,5,10] - 24 x[1,6,10] - 39 x[1,7,10]
   - 18 x[1,8,10] - 48 x[2,0,10] - 24 x[2,1,10] - 10 x[2,2,10]
   - 39 x[2,3,10] - 44 x[2,4,10] - 11 x[2,5,10] - 33 x[2,6,10]
   - 24 x[2,7,10] - 2 x[2,8,10] - 5938 z[1,9,10] - B[9] + B[10] >= -5938
 R10new[1,10,1]: - 15 x[1,0,1] - 28 x[1,2,1] - 25 x[1,3,1] - 35 x[1,4,1]
   - 37 x[1,5,1] - 15 x[1,6,1] - 23 x[1,7,1] - 41 x[1,8,1] - 41 x[1,9,1]
   - 42 x[2,0,1] - 15 x[2,2,1] - 41 x[2,3,1] - 30 x[2,4,1] - 35 x[2,5,1]
   - 30 x[2,6,1] - 7 x[2,7,1] - 49 x[2,8,1] - 8 x[2,9,1] - 5938 z[1,10,1]
   + B[1] - B[10] >= -5938
 R10new[1,10,2]: - 33 x[1,0,2] - 27 x[1,1,2] - 7 x[1,3,2] - 8 x[1,4,2]
   - 13 x[1,5,2] - 7 x[1,6,2] - 14 x[1,7,2] - 11 x[1,8,2] - 45 x[1,9,2]
   - 32 x[2,0,2] - 36 x[2,1,2] - 11 x[2,3,2] - 34 x[2,4,2] - 49 x[2,5,2]
   - x[2,6,2] - 41 x[2,7,2] - 11 x[2,8,2] - 24 x[2,9,2] - 5938 z[1,10,2]
   + B[2] - B[10] >= -5938
 R10new[1,10,3]: - 39 x[1,0,3] - 15 x[1,1,3] - 22 x[1,2,3] - 25 x[1,4,3]
   - 46 x[1,5,3] - 25 x[1,6,3] - 43 x[1,7,3] - 35 x[1,8,3] - 36 x[1,9,3]
   - 26 x[2,0,3] - 35 x[2,1,3] - 9 x[2,2,3] - 17 x[2,4,3] - 18 x[2,5,3]
   - 47 x[2,6,3] - 20 x[2,7,3] - 35 x[2,8,3] - 20 x[2,9,3] - 5938 z[1,10,3]
   + B[3] - B[10] >= -5938
 R10new[1,10,4]: - 2 x[1,0,4] - 29 x[1,1,4] - 18 x[1,2,4] - 23 x[1,3,4]
   - 5 x[1,5,4] - 18 x[1,6,4] - 18 x[1,7,4] - 47 x[1,8,4] - 15 x[1,9,4]
   - 42 x[2,0,4] - 17 x[2,1,4] - 33 x[2,2,4] - 44 x[2,3,4] - 42 x[2,5,4]
   - 47 x[2,6,4] - 41 x[2,7,4] - 34 x[2,8,4] - 16 x[2,9,4] - 5938 z[1,10,4]
   + B[4] - B[10] >= -5938
 R10new[1,10,5]: - 36 x[1,0,5] - 38 x[1,1,5] - 10 x[1,2,5] - 23 x[1,3,5]
   - 6 x[1,4,5] - 30 x[1,6,5] - 45 x[1,7,5] - 16 x[1,8,5] - 44 x[1,9,5]
   - 30 x[2,0,5] - 48 x[2,1,5] - 32 x[2,2,5] - 28 x[2,3,5] - 36 x[2,4,5]
   - 17 x[2,6,5] - 33 x[2,7,5] - x[2,8,5] - 4 x[2,9,5] - 5938 z[1,10,5]
   + B[5] - B[10] >= -5938
 R10new[1,10,6]: - 13 x[1,0,6] - 18 x[1,1,6] - 14 x[1,2,6] - 39 x[1,3,6]
   - 36 x[1,4,6] - 3 x[1,5,6] - 44 x[1,7,6] - 11 x[1,8,6] - 21 x[1,9,6]
   - 10 x[2,0,6] - 38 x[2,1,6] - 6 x[2,2,6] - 39 x[2,3,6] - x[2,4,6]
   - 22 x[2,5,6] - 39 x[2,7,6] - 39 x[2,8,6] - 16 x[2,9,6] - 5938 z[1,10,6]
   + B[6] - B[10] >= -5938
 R10new[1,10,7]: - 46 x[1,0,7] - x[1,1,7] - 49 x[1,2,7] - 17 x[1,3,7]
   - 19 x[1,4,7] - 43 x[1,5,7] - 41 x[1,6,7] - 30 x[1,8,7] - 4 x[1,9,7]
   - 17 x[2,0,7] - 28 x[2,1,7] - 49 x[2,2,7] - 5 x[2,3,7] - 44 x[2,4,7]
   - 8 x[2,5,7] - 33 x[2,6,7] - 21 x[2,8,7] - 37 x[2,9,7] - 5938 z[1,10,7]
   + B[7] - B[10] >= -5938
 R10new[1,10,8]: - 42 x[1,0,8] - 49 x[1,1,8] - 22 x[1,2,8] - 3 x[1,3,8]
   - 41 x[1,4,8] - 15 x[1,5,8] - 24 x[1,6,8] - 42 x[1,7,8] - 15 x[1,9,8]
   - 9 x[2,0,8] - 38 x[2,1,8] - 4 x[2,2,8] - 25 x[2,3,8] - 47 x[2,4,8]
   - 19 x[2,5,8] - 49 x[2,6,8] - 13 x[2,7,8] - 6 x[2,9,8] - 5938 z[1,10,8]
   + B[8] - B[10] >= -5938
 R10new[1,10,9]: - 45 x[1,0,9] - 11 x[1,1,9] - 7 x[1,2,9] - 47 x[1,3,9]
   - 40 x[1,4,9] - 19 x[1,5,9] - 11 x[1,6,9] - 5 x[1,7,9] - 25 x[1,8,9]
   - 16 x[2,0,9] - 26 x[2,1,9] - 8 x[2,2,9] - 25 x[2,3,9] - 8 x[2,4,9]
   - 28 x[2,5,9] - 12 x[2,6,9] - 10 x[2,7,9] - 32 x[2,8,9] - 5938 z[1,10,9]
   + B[9] - B[10] >= -5938
 R17[1]: 82 y[1,1] + 87 y[2,1] - Cmax + B[1] <= 0
 R17[2]: 15 y[1,2] + 95 y[2,2] - Cmax + B[2] <= 0
 R17[3]: 4 y[1,3] + 70 y[2,3] - Cmax + B[3] <= 0
 R17[4]: 95 y[1,4] + 12 y[2,4] - Cmax + B[4] <= 0
 R17[5]: 36 y[1,5] + 76 y[2,5] - Cmax + B[5] <= 0
 R17[6]: 32 y[1,6] + 55 y[2,6] - Cmax + B[6] <= 0
 R17[7]: 29 y[1,7] + 5 y[2,7] - Cmax + B[7] <= 0
 R17[8]: 18 y[1,8] + 4 y[2,8] - Cmax + B[8] <= 0
 R17[9]: 95 y[1,9] + 12 y[2,9] - Cmax + B[9] <= 0
 R17[10]: 14 y[1,10] + 28 y[2,10] - Cmax + B[10] <= 0
 R12: - 15 x[1,0,1] - 33 x[1,0,2] - 39 x[1,0,3] - 2 x[1,0,4] - 36 x[1,0,5]
   - 13 x[1,0,6] - 46 x[1,0,7] - 42 x[1,0,8] - 45 x[1,0,9] - 35 x[1,0,10]
   - 27 x[1,1,2] - 15 x[1,1,3] - 29 x[1,1,4] - 38 x[1,1,5] - 18 x[1,1,6]
   - x[1,1,7] - 49 x[1,1,8] - 11 x[1,1,9] - 45 x[1,1,10] - 28 x[1,2,1]
   - 22 x[1,2,3] - 18 x[1,2,4] - 10 x[1,2,5] - 14 x[1,2,6] - 49 x[1,2,7]
   - 22 x[1,2,8] - 7 x[1,2,9] - 6 x[1,2,10] - 25 x[1,3,1] - 7 x[1,3,2]
   - 23 x[1,3,4] - 23 x[1,3,5] - 39 x[1,3,6] - 17 x[1,3,7] - 3 x[1,3,8]
   - 47 x[1,3,9] - 30 x[1,3,10] - 35 x[1,4,1] - 8 x[1,4,2] - 25 x[1,4,3]
   - 6 x[1,4,5] - 36 x[1,4,6] - 19 x[1,4,7] - 41 x[1,4,8] - 40 x[1,4,9]
   - 24 x[1,4,10] - 37 x[1,5,1] - 13 x[1,5,2] - 46 x[1,5,3] - 5 x[1,5,4]
   - 3 x[1,5,6] - 43 x[1,5,7] - 15 x[1,5,8] - 19 x[1,5,9] - 6 x[1,5,10]
   - 15 x[1,6,1] - 7 x[1,6,2] - 25 x[1,6,3] - 18 x[1,6,4] - 30 x[1,6,5]
   - 41 x[1,6,7] - 24 x[1,6,8] - 11 x[1,6,9] - 24 x[1,6,10] - 23 x[1,7,1]
   - 14 x[1,7,2] - 43 x[1,7,3] - 18 x[1,7,4] - 45 x[1,7,5] - 44 x[1,7,6]
   - 42 x[1,7,8] - 5 x[1,7,9] - 39 x[1,7,10] - 41 x[1,8,1] - 11 x[1,8,2]
   - 35 x[1,8,3] - 47 x[1,8,4] - 16 x[1,8,5] - 11 x[1,8,6] - 30 x[1,8,7]
   - 25 x[1,8,9] - 18 x[1,8,10] - 41 x[1,9,1] - 45 x[1,9,2] - 36 x[1,9,3]
   - 15 x[1,9,4] - 44 x[1,9,5] - 21 x[1,9,6] - 4 x[1,9,7] - 15 x[1,9,8]
   - 3 x[1,9,10] - 21 x[1,10,1] - 26 x[1,10,2] - 18 x[1,10,3] - 5 x[1,10,4]
   - 14 x[1,10,5] - 37 x[1,10,6] - 46 x[1,10,7] - 21 x[1,10,8]
   - 14 x[1,10,9] - 42 x[2,0,1] - 32 x[2,0,2] - 26 x[2,0,3] - 42 x[2,0,4]
   - 30 x[2,0,5] - 10 x[2,0,6] - 17 x[2,0,7] - 9 x[2,0,8] - 16 x[2,0,9]
   - 48 x[2,0,10] - 36 x[2,1,2] - 35 x[2,1,3] - 17 x[2,1,4] - 48 x[2,1,5]
   - 38 x[2,1,6] - 28 x[2,1,7] - 38 x[2,1,8] - 26 x[2,1,9] - 24 x[2,1,10]
   - 15 x[2,2,1] - 9 x[2,2,3] - 33 x[2,2,4] - 32 x[2,2,5] - 6 x[2,2,6]
   - 49 x[2,2,7] - 4 x[2,2,8] - 8 x[2,2,9] - 10 x[2,2,10] - 41 x[2,3,1]
   - 11 x[2,3,2] - 44 x[2,3,4] - 28 x[2,3,5] - 39 x[2,3,6] - 5 x[2,3,7]
   - 25 x[2,3,8] - 25 x[2,3,9] - 39 x[2,3,10] - 30 x[2,4,1] - 34 x[2,4,2]
   - 17 x[2,4,3] - 36 x[2,4,5] - x[2,4,6] - 44 x[2,4,7] - 47 x[2,4,8]
   - 8 x[2,4,9] - 44 x[2,4,10] - 35 x[2,5,1] - 49 x[2,5,2] - 18 x[2,5,3]
   - 42 x[2,5,4] - 22 x[2,5,6] - 8 x[2,5,7] - 19 x[2,5,8] - 28 x[2,5,9]
   - 11 x[2,5,10] - 30 x[2,6,1] - x[2,6,2] - 47 x[2,6,3] - 47 x[2,6,4]
   - 17 x[2,6,5] - 33 x[2,6,7] - 49 x[2,6,8] - 12 x[2,6,9] - 33 x[2,6,10]
   - 7 x[2,7,1] - 41 x[2,7,2] - 20 x[2,7,3] - 41 x[2,7,4] - 33 x[2,7,5]
   - 39 x[2,7,6] - 13 x[2,7,8] - 10 x[2,7,9] - 24 x[2,7,10] - 49 x[2,8,1]
   - 11 x[2,8,2] - 35 x[2,8,3] - 34 x[2,8,4] - x[2,8,5] - 39 x[2,8,6]
   - 21 x[2,8,7] - 32 x[2,8,9] - 2 x[2,8,10] - 8 x[2,9,1] - 24 x[2,9,2]
   - 20 x[2,9,3] - 16 x[2,9,4] - 4 x[2,9,5] - 16 x[2,9,6] - 37 x[2,9,7]
   - 6 x[2,9,8] - 6 x[2,9,10] - 47 x[2,10,1] - 32 x[2,10,2] - 5 x[2,10,3]
   - 49 x[2,10,4] - 35 x[2,10,5] - 9 x[2,10,6] - 9 x[2,10,7] - 43 x[2,10,8]
   - 31 x[2,10,9] + Cmax >= 4
Bounds
 y[1,1] <= 1
 y[1,2] <= 1
 y[1,3] <= 1
 y[1,4] <= 1
 y[1,5] <= 1
 y[1,6] <= 1
 y[1,7] <= 1
 y[1,8] <= 1
 y[1,9] <= 1
 y[1,10] <= 1
 y[2,1] <= 1
 y[2,2] <= 1
 y[2,3] <= 1
 y[2,4] <= 1
 y[2,5] <= 1
 y[2,6] <= 1
 y[2,7] <= 1
 y[2,8] <= 1
 y[2,9] <= 1
 y[2,10] <= 1
 w[1,1] <= 1
 w[1,2] <= 1
 w[1,3] <= 1
 w[1,4] <= 1
 w[1,5] <= 1
 w[1,6] <= 1
 w[1,7] <= 1
 w[1,8] <= 1
 w[1,9] <= 1
 w[1,10] <= 1
Binaries
 x[1,0,1] x[1,0,2] x[1,0,3] x[1,0,4] x[1,0,5] x[1,0,6] x[1,0,7] x[1,0,8]
 x[1,0,9] x[1,0,10] x[1,1,2] x[1,1,3] x[1,1,4] x[1,1,5] x[1,1,6] x[1,1,7]
 x[1,1,8] x[1,1,9] x[1,1,10] x[1,2,1] x[1,2,3] x[1,2,4] x[1,2,5] x[1,2,6]
 x[1,2,7] x[1,2,8] x[1,2,9] x[1,2,10] x[1,3,1] x[1,3,2] x[1,3,4] x[1,3,5]
 x[1,3,6] x[1,3,7] x[1,3,8] x[1,3,9] x[1,3,10] x[1,4,1] x[1,4,2] x[1,4,3]
 x[1,4,5] x[1,4,6] x[1,4,7] x[1,4,8] x[1,4,9] x[1,4,10] x[1,5,1] x[1,5,2]
 x[1,5,3] x[1,5,4] x[1,5,6] x[1,5,7] x[1,5,8] x[1,5,9] x[1,5,10] x[1,6,1]
 x[1,6,2] x[1,6,3] x[1,6,4] x[1,6,5] x[1,6,7] x[1,6,8] x[1,6,9] x[1,6,10]
 x[1,7,1] x[1,7,2] x[1,7,3] x[1,7,4] x[1,7,5] x[1,7,6] x[1,7,8] x[1,7,9]
 x[1,7,10] x[1,8,1] x[1,8,2] x[1,8,3] x[1,8,4] x[1,8,5] x[1,8,6] x[1,8,7]
 x[1,8,9] x[1,8,10] x[1,9,1] x[1,9,2] x[1,9,3] x[1,9,4] x[1,9,5] x[1,9,6]
 x[1,9,7] x[1,9,8] x[1,9,10] x[1,10,1] x[1,10,2] x[1,10,3] x[1,10,4]
 x[1,10,5] x[1,10,6] x[1,10,7] x[1,10,8] x[1,10,9] x[2,0,1] x[2,0,2]
 x[2,0,3] x[2,0,4] x[2,0,5] x[2,0,6] x[2,0,7] x[2,0,8] x[2,0,9] x[2,0,10]
 x[2,1,2] x[2,1,3] x[2,1,4] x[2,1,5] x[2,1,6] x[2,1,7] x[2,1,8] x[2,1,9]
 x[2,1,10] x[2,2,1] x[2,2,3] x[2,2,4] x[2,2,5] x[2,2,6] x[2,2,7] x[2,2,8]
 x[2,2,9] x[2,2,10] x[2,3,1] x[2,3,2] x[2,3,4] x[2,3,5] x[2,3,6] x[2,3,7]
 x[2,3,8] x[2,3,9] x[2,3,10] x[2,4,1] x[2,4,2] x[2,4,3] x[2,4,5] x[2,4,6]
 x[2,4,7] x[2,4,8] x[2,4,9] x[2,4,10] x[2,5,1] x[2,5,2] x[2,5,3] x[2,5,4]
 x[2,5,6] x[2,5,7] x[2,5,8] x[2,5,9] x[2,5,10] x[2,6,1] x[2,6,2] x[2,6,3]
 x[2,6,4] x[2,6,5] x[2,6,7] x[2,6,8] x[2,6,9] x[2,6,10] x[2,7,1] x[2,7,2]
 x[2,7,3] x[2,7,4] x[2,7,5] x[2,7,6] x[2,7,8] x[2,7,9] x[2,7,10] x[2,8,1]
 x[2,8,2] x[2,8,3] x[2,8,4] x[2,8,5] x[2,8,6] x[2,8,7] x[2,8,9] x[2,8,10]
 x[2,9,1] x[2,9,2] x[2,9,3] x[2,9,4] x[2,9,5] x[2,9,6] x[2,9,7] x[2,9,8]
 x[2,9,10] x[2,10,1] x[2,10,2] x[2,10,3] x[2,10,4] x[2,10,5] x[2,10,6]
 x[2,10,7] x[2,10,8] x[2,10,9] z[1,0,1] z[1,0,2] z[1,0,3] z[1,0,4] z[1,0,5]
 z[1,0,6] z[1,0,7] z[1,0,8] z[1,0,9] z[1,0,10] z[1,1,1] z[1,1,2] z[1,1,3]
 z[1,1,4] z[1,1,5] z[1,1,6] z[1,1,7] z[1,1,8] z[1,1,9] z[1,1,10] z[1,2,1]
 z[1,2,2] z[1,2,3] z[1,2,4] z[1,2,5] z[1,2,6] z[1,2,7] z[1,2,8] z[1,2,9]
 z[1,2,10] z[1,3,1] z[1,3,2] z[1,3,3] z[1,3,4] z[1,3,5] z[1,3,6] z[1,3,7]
 z[1,3,8] z[1,3,9] z[1,3,10] z[1,4,1] z[1,4,2] z[1,4,3] z[1,4,4] z[1,4,5]
 z[1,4,6] z[1,4,7] z[1,4,8] z[1,4,9] z[1,4,10] z[1,5,1] z[1,5,2] z[1,5,3]
 z[1,5,4] z[1,5,5] z[1,5,6] z[1,5,7] z[1,5,8] z[1,5,9] z[1,5,10] z[1,6,1]
 z[1,6,2] z[1,6,3] z[1,6,4] z[1,6,5] z[1,6,6] z[1,6,7] z[1,6,8] z[1,6,9]
 z[1,6,10] z[1,7,1] z[1,7,2] z[1,7,3] z[1,7,4] z[1,7,5] z[1,7,6] z[1,7,7]
 z[1,7,8] z[1,7,9] z[1,7,10] z[1,8,1] z[1,8,2] z[1,8,3] z[1,8,4] z[1,8,5]
 z[1,8,6] z[1,8,7] z[1,8,8] z[1,8,9] z[1,8,10] z[1,9,1] z[1,9,2] z[1,9,3]
 z[1,9,4] z[1,9,5] z[1,9,6] z[1,9,7] z[1,9,8] z[1,9,9] z[1,9,10] z[1,10,1]
 z[1,10,2] z[1,10,3] z[1,10,4] z[1,10,5] z[1,10,6] z[1,10,7] z[1,10,8]
 z[1,10,9] z[1,10,10]
Generals
 Cmax B[1] B[2] B[3] B[4] B[5] B[6] B[7] B[8] B[9] B[10]
End
